     Program PWSCF v.6.4.1 starts on  2Aug2021 at 11:44:49

     Waiting for input...
     Reading input from standard input

     Current dimensions of program PWSCF are:
     Max number of different atomic species (ntypx) = 10
     Max number of k-points (npk) =  40000
     Max angular momentum in pseudopotentials (lmaxx) =  3

     Subspace diagonalization in iterative solution of the eigenvalue problem:
     a serial algorithm will be used

     bravais-lattice index     =            4
     lattice parameter (alat)  =       4.7000  a.u.
     unit-cell volume          =     287.7227 (a.u.)^3
     number of atoms/cell      =            4
     number of atomic types    =            1
     number of electrons       =        16.00
     number of Kohn-Sham states=            8
     kinetic-energy cutoff     =     100.0000  Ry
     charge density cutoff     =     400.0000  Ry
     convergence threshold     =      1.0E-06
     mixing beta               =       0.7000
     number of iterations used =            8  plain     mixing
     Exchange-correlation      = SLA PZ NOGX NOGC ( 1  1  0  0 0 0)

     celldm(1)=   4.700000  celldm(2)=   0.000000  celldm(3)=   3.200000
     celldm(4)=   0.000000  celldm(5)=   0.000000  celldm(6)=   0.000000

     crystal axes: (cart. coord. in units of alat)
               a(1) = (   1.000000   0.000000   0.000000 )
               a(2) = (  -0.500000   0.866025   0.000000 )
               a(3) = (   0.000000   0.000000   3.200000 )

     reciprocal axes: (cart. coord. in units 2 pi/alat)
               b(1) = (  1.000000  0.577350 -0.000000 )
               b(2) = (  0.000000  1.154701  0.000000 )
               b(3) = (  0.000000 -0.000000  0.312500 )

     PseudoPot. # 1 for C  read from file:
     ./\C.pz-vbc.UPF
     MD5 check sum: f697e42eaa1e52b77fcf7925dd36a1dd
     Pseudo is Norm-conserving, Zval =  4.0
     Generated by new atomic code, or converted to UPF format
     Using radial grid of  269 points,  1 beta functions with:
                l(1) =   0

     atomic species   valence    mass     pseudopotential
        C              4.00     1.00000     C ( 1.00)

     24 Sym. Ops., with inversion, found (12 have fractional translation)

   Cartesian axes

     site n.     atom                  positions (alat units)
         1           C   tau(   1) = (   0.0000000   0.0000000   0.8000000  )
         2           C   tau(   2) = (   0.0000000   0.0000000   2.4000000  )
         3           C   tau(   3) = (  -0.0000005   0.5773506   0.8000000  )
         4           C   tau(   4) = (   0.5000005   0.2886748   2.4000000  )

     number of k points=    36
                       cart. coord. in units 2pi/alat
        k(    1) = (   0.0833333   0.1443376   0.0260417), wk =   0.0370370
        k(    2) = (   0.0833333   0.1443376   0.0781250), wk =   0.0370370
        k(    3) = (   0.0833333   0.1443376   0.1302083), wk =   0.0370370
        k(    4) = (   0.0833333   0.3367877   0.0260417), wk =   0.0740741
        k(    5) = (   0.0833333   0.3367877   0.0781250), wk =   0.0740741
        k(    6) = (   0.0833333   0.3367877   0.1302083), wk =   0.0740741
        k(    7) = (   0.0833333   0.5292377   0.0260417), wk =   0.0740741
        k(    8) = (   0.0833333   0.5292377   0.0781250), wk =   0.0740741
        k(    9) = (   0.0833333   0.5292377   0.1302083), wk =   0.0740741
        k(   10) = (   0.0833333  -0.4330127   0.0260417), wk =   0.0740741
        k(   11) = (   0.0833333  -0.4330127   0.0781250), wk =   0.0740741
        k(   12) = (   0.0833333  -0.4330127   0.1302083), wk =   0.0740741
        k(   13) = (   0.0833333  -0.2405626   0.0260417), wk =   0.0740741
        k(   14) = (   0.0833333  -0.2405626   0.0781250), wk =   0.0740741
        k(   15) = (   0.0833333  -0.2405626   0.1302083), wk =   0.0740741
        k(   16) = (   0.0833333  -0.0481125   0.0260417), wk =   0.0370370
        k(   17) = (   0.0833333  -0.0481125   0.0781250), wk =   0.0370370
        k(   18) = (   0.0833333  -0.0481125   0.1302083), wk =   0.0370370
        k(   19) = (   0.2500000   0.4330127   0.0260417), wk =   0.0370370
        k(   20) = (   0.2500000   0.4330127   0.0781250), wk =   0.0370370
        k(   21) = (   0.2500000   0.4330127   0.1302083), wk =   0.0370370
        k(   22) = (   0.2500000   0.6254628   0.0260417), wk =   0.0740741
        k(   23) = (   0.2500000   0.6254628   0.0781250), wk =   0.0740741
        k(   24) = (   0.2500000   0.6254628   0.1302083), wk =   0.0740741
        k(   25) = (   0.2500000  -0.3367877   0.0260417), wk =   0.0740741
        k(   26) = (   0.2500000  -0.3367877   0.0781250), wk =   0.0740741
        k(   27) = (   0.2500000  -0.3367877   0.1302083), wk =   0.0740741
        k(   28) = (   0.2500000  -0.1443376   0.0260417), wk =   0.0370370
        k(   29) = (   0.2500000  -0.1443376   0.0781250), wk =   0.0370370
        k(   30) = (   0.2500000  -0.1443376   0.1302083), wk =   0.0370370
        k(   31) = (   0.4166667   0.7216878   0.0260417), wk =   0.0370370
        k(   32) = (   0.4166667   0.7216878   0.0781250), wk =   0.0370370
        k(   33) = (   0.4166667   0.7216878   0.1302083), wk =   0.0370370
        k(   34) = (   0.4166667  -0.2405626   0.0260417), wk =   0.0370370
        k(   35) = (   0.4166667  -0.2405626   0.0781250), wk =   0.0370370
        k(   36) = (   0.4166667  -0.2405626   0.1302083), wk =   0.0370370

     Initial potential from superposition of free atoms

     starting charge   15.99989, renormalised to   16.00000
     Starting wfcs are   16 randomized atomic wfcs

     Self-consistent Calculation

     iteration #  1     ecut=   100.00 Ry     beta= 0.70
     Davidson diagonalization with overlap
     ethr =  1.00E-02,  avg # of iterations =  2.2

     total energy              =     -45.51705442 Ry
     Harris-Foulkes estimate   =     -45.77295072 Ry
     estimated scf accuracy    <       0.40696042 Ry

[...]

     total energy              =     -45.59055635 Ry
     Harris-Foulkes estimate   =     -45.59055697 Ry
     estimated scf accuracy    <       0.00000181 Ry

     iteration #  5     ecut=   100.00 Ry     beta= 0.70
     Davidson diagonalization with overlap
     ethr =  1.13E-08,  avg # of iterations =  3.9

     End of self-consistent calculation

          k = 0.0833 0.1443 0.0260 (  4879 PWs)   bands (ev):

   -13.7676 -13.6949  -2.4978  -1.7343   0.0717   0.0773   0.7067   0.7106

[...]

          k = 0.4167-0.2406 0.1302 (  4847 PWs)   bands (ev):

   -10.3637 -10.3495  -6.7231  -6.7134  -1.4578  -1.4552   1.5841   1.7237

     highest occupied level (ev):     3.6743

!    total energy              =     -45.59055955 Ry
     Harris-Foulkes estimate   =     -45.59055960 Ry
     estimated scf accuracy    <       0.00000010 Ry

     The total energy is the sum of the following terms:

     one-electron contribution =     -25.35845813 Ry
     hartree contribution      =      19.22258161 Ry
     xc contribution           =     -13.76983592 Ry
     ewald contribution        =     -25.68484711 Ry

     convergence has been achieved in   5 iterations

     Writing output data file graphite.save\

     General routines

     Parallel routines

   This run was terminated on:  11:44:55   2Aug2021

   JOB DONE.