     Program PWSCF v.7.0 starts on  9Jun2022 at 14: 7:43

     K-points division:     npool     =    1024

     Reading input from relax.in

     Current dimensions of program PWSCF are:
     Max number of different atomic species (ntypx) = 10
     Max number of k-points (npk) =  40000
     Max angular momentum in pseudopotentials (lmaxx) =  4
     Message from routine divide_et_impera:
     suboptimal parallelization: some nodes have no k-points

     Subspace diagonalization in iterative solution of the eigenvalue problem:
     a serial algorithm will be used

     Using Slab Decomposition

     bravais-lattice index     =            4
     lattice parameter (alat)  =       4.6415  a.u.
     unit-cell volume          =     865.9757 (a.u.)^3
     number of atoms/cell      =            2
     number of atomic types    =            1
     number of electrons       =         8.00
     number of Kohn-Sham states=            8
     kinetic-energy cutoff     =     100.0000  Ry
     charge density cutoff     =     400.0000  Ry
     scf convergence threshold =      1.0E-09
     mixing beta               =       0.7000
     number of iterations used =            8  plain     mixing
     energy convergence thresh.=      1.0E-04
     force convergence thresh. =      1.0E-03
     press convergence thresh. =      1.0E-02
     Exchange-correlation= SLA  PW   NOGX NOGC
                           (   1   4   0   0   0   0   0)
     nstep                     =           50

     celldm(1)=   4.641500  celldm(2)=   0.000000  celldm(3)=  10.000000
     celldm(4)=   0.000000  celldm(5)=   0.000000  celldm(6)=   0.000000

     crystal axes: (cart. coord. in units of alat)
               a(1) = (   1.000000   0.000000   0.000000 )
               a(2) = (  -0.500000   0.866025   0.000000 )
               a(3) = (   0.000000   0.000000  10.000000 )

     reciprocal axes: (cart. coord. in units 2 pi/alat)
               b(1) = (  1.000000  0.577350  0.000000 )
               b(2) = (  0.000000  1.154701  0.000000 )
               b(3) = (  0.000000  0.000000  0.100000 )

     PseudoPot. # 1 for C  read from file:
     ../pseudo/C.upf
     MD5 check sum: c9bd9c91d9c48f3c1b9c51e450525728
     Pseudo is Norm-conserving + core correction, Zval =  4.0
     Generated using ONCVPSP code by D. R. Hamann
     Using radial grid of 1234 points,  4 beta functions with:
                l(1) =   0
                l(2) =   0
                l(3) =   1
                l(4) =   1

     atomic species   valence    mass     pseudopotential
        C              4.00    12.01100     C ( 1.00)

     24 Sym. Ops., with inversion, found

                                    s                        frac. trans.

      isym =  1     identity

 cryst.   s( 1) = (     1          0          0      )
                  (     0          1          0      )
                  (     0          0          1      )

 cart.    s( 1) = (  1.0000000  0.0000000  0.0000000 )
                  (  0.0000000  1.0000000  0.0000000 )
                  (  0.0000000  0.0000000  1.0000000 )

      isym =  2     180 deg rotation - cart. axis [0,0,1]

[...]

      isym =  5      60 deg rotation - cryst. axis [0,0,1]

[...]

 cryst.   s(10) = (     1          1          0      )
                  (     0         -1          0      )
                  (     0          0         -1      )

 cart.    s(10) = (  0.5000000  0.8660254  0.0000000 )
                  (  0.8660254 -0.5000000  0.0000000 )
                  (  0.0000000  0.0000000 -1.0000000 )

[...]

      isym = 13     inversion

[...]

      isym = 14     inv. 180 deg rotation - cart. axis [0,0,1]

[...]

      isym = 17     inv.  60 deg rotation - cryst. axis [0,0,1]

[...]

     point group D_6h(6/mmm)
     there are 12 classes
     the character table:

       E     2C6   2C3   C2    3C2'  3C2'' i     2S3   2S6   s_h   3s_d  3s_v
A_1g   1.00  1.00  1.00  1.00  1.00  1.00  1.00  1.00  1.00  1.00  1.00  1.00
A_2g   1.00  1.00  1.00  1.00 -1.00 -1.00  1.00  1.00  1.00  1.00 -1.00 -1.00
B_1g   1.00 -1.00  1.00 -1.00  1.00 -1.00  1.00 -1.00  1.00 -1.00  1.00 -1.00
B_2g   1.00 -1.00  1.00 -1.00 -1.00  1.00  1.00 -1.00  1.00 -1.00 -1.00  1.00
E_1g   2.00  1.00 -1.00 -2.00  0.00  0.00  2.00  1.00 -1.00 -2.00  0.00  0.00
E_2g   2.00 -1.00 -1.00  2.00  0.00  0.00  2.00 -1.00 -1.00  2.00  0.00  0.00
A_1u   1.00  1.00  1.00  1.00  1.00  1.00 -1.00 -1.00 -1.00 -1.00 -1.00 -1.00
A_2u   1.00  1.00  1.00  1.00 -1.00 -1.00 -1.00 -1.00 -1.00 -1.00  1.00  1.00
B_1u   1.00 -1.00  1.00 -1.00  1.00 -1.00 -1.00  1.00 -1.00  1.00 -1.00  1.00
B_2u   1.00 -1.00  1.00 -1.00 -1.00  1.00 -1.00  1.00 -1.00  1.00  1.00 -1.00
E_1u   2.00  1.00 -1.00 -2.00  0.00  0.00 -2.00 -1.00  1.00  2.00  0.00  0.00
E_2u   2.00 -1.00 -1.00  2.00  0.00  0.00 -2.00  1.00  1.00 -2.00  0.00  0.00

     the symmetry operations in each class and the name of the first element:

     E        1
          identity
     2C6      5    6
           60 deg rotation - cryst. axis [0,0,1]
     2C3      7    8
          120 deg rotation - cryst. axis [0,0,1]
     C2       2
          180 deg rotation - cart. axis [0,0,1]
     3C2'     4   12   11
          180 deg rotation - cart. axis [1,0,0]
     3C2''    3    9   10
          180 deg rotation - cart. axis [0,1,0]
     i       13
          inversion
     2S3     17   18
          inv.  60 deg rotation - cryst. axis [0,0,1]
     2S6     19   20
          inv. 120 deg rotation - cryst. axis [0,0,1]
     s_h     14
          inv. 180 deg rotation - cart. axis [0,0,1]
     3s_d    16   24   23
          inv. 180 deg rotation - cart. axis [1,0,0]
     3s_v    15   21   22
          inv. 180 deg rotation - cart. axis [0,1,0]

   Cartesian axes

     site n.     atom                  positions (alat units)
         1           C   tau(   1) = (   0.5000000   0.2886751   0.0000000  )
         2           C   tau(   2) = (   0.0000000   0.5773503   0.0000000  )

   Crystallographic axes

     site n.     atom                  positions (cryst. coord.)
         1           C   tau(   1) = (  0.6666667  0.3333333  0.0000000  )
         2           C   tau(   2) = (  0.3333333  0.6666667  0.0000000  )

     number of k points=   272  Methfessel-Paxton smearing, width (Ry)=  0.0050
                       cart. coord. in units 2pi/alat
        k(    1) = (   0.0156250   0.0270633   0.0000000), wk =   0.0039062
        k(    2) = (   0.0156250   0.0631477   0.0000000), wk =   0.0078125
        k(    3) = (   0.0156250   0.0992321   0.0000000), wk =   0.0078125
        k(    4) = (   0.0156250   0.1353165   0.0000000), wk =   0.0078125
        k(    5) = (   0.0156250   0.1714009   0.0000000), wk =   0.0078125
        k(    6) = (   0.0156250   0.2074853   0.0000000), wk =   0.0078125
        k(    7) = (   0.0156250   0.2435696   0.0000000), wk =   0.0078125
        k(    8) = (   0.0156250   0.2796540   0.0000000), wk =   0.0078125
        k(    9) = (   0.0156250   0.3157384   0.0000000), wk =   0.0078125
        k(   10) = (   0.0156250   0.3518228   0.0000000), wk =   0.0078125
        k(   11) = (   0.0156250   0.3879072   0.0000000), wk =   0.0078125
        k(   12) = (   0.0156250   0.4239916   0.0000000), wk =   0.0078125
        k(   13) = (   0.0156250   0.4600760   0.0000000), wk =   0.0078125
        k(   14) = (   0.0156250   0.4961604   0.0000000), wk =   0.0078125
        k(   15) = (   0.0156250   0.5322448   0.0000000), wk =   0.0078125
        k(   16) = (   0.0156250   0.5683292   0.0000000), wk =   0.0078125
        k(   17) = (   0.0156250  -0.5502870   0.0000000), wk =   0.0078125
        k(   18) = (   0.0156250  -0.5142026   0.0000000), wk =   0.0078125
        k(   19) = (   0.0156250  -0.4781182   0.0000000), wk =   0.0078125
        k(   20) = (   0.0156250  -0.4420338   0.0000000), wk =   0.0078125
        k(   21) = (   0.0156250  -0.4059494   0.0000000), wk =   0.0078125
        k(   22) = (   0.0156250  -0.3698650   0.0000000), wk =   0.0078125
        k(   23) = (   0.0156250  -0.3337806   0.0000000), wk =   0.0078125
        k(   24) = (   0.0156250  -0.2976962   0.0000000), wk =   0.0078125
        k(   25) = (   0.0156250  -0.2616118   0.0000000), wk =   0.0078125
        k(   26) = (   0.0156250  -0.2255274   0.0000000), wk =   0.0078125
        k(   27) = (   0.0156250  -0.1894431   0.0000000), wk =   0.0078125
        k(   28) = (   0.0156250  -0.1533587   0.0000000), wk =   0.0078125
        k(   29) = (   0.0156250  -0.1172743   0.0000000), wk =   0.0078125
        k(   30) = (   0.0156250  -0.0811899   0.0000000), wk =   0.0078125
        k(   31) = (   0.0156250  -0.0451055   0.0000000), wk =   0.0078125
        k(   32) = (   0.0156250  -0.0090211   0.0000000), wk =   0.0039062
        k(   33) = (   0.0468750   0.0811899   0.0000000), wk =   0.0039062
        k(   34) = (   0.0468750   0.1172743   0.0000000), wk =   0.0078125
        k(   35) = (   0.0468750   0.1533587   0.0000000), wk =   0.0078125
        k(   36) = (   0.0468750   0.1894431   0.0000000), wk =   0.0078125
        k(   37) = (   0.0468750   0.2255274   0.0000000), wk =   0.0078125
        k(   38) = (   0.0468750   0.2616118   0.0000000), wk =   0.0078125
        k(   39) = (   0.0468750   0.2976962   0.0000000), wk =   0.0078125
        k(   40) = (   0.0468750   0.3337806   0.0000000), wk =   0.0078125
        k(   41) = (   0.0468750   0.3698650   0.0000000), wk =   0.0078125
        k(   42) = (   0.0468750   0.4059494   0.0000000), wk =   0.0078125
        k(   43) = (   0.0468750   0.4420338   0.0000000), wk =   0.0078125
        k(   44) = (   0.0468750   0.4781182   0.0000000), wk =   0.0078125
        k(   45) = (   0.0468750   0.5142026   0.0000000), wk =   0.0078125
        k(   46) = (   0.0468750   0.5502870   0.0000000), wk =   0.0078125
        k(   47) = (   0.0468750   0.5863714   0.0000000), wk =   0.0078125
        k(   48) = (   0.0468750  -0.5322448   0.0000000), wk =   0.0078125
        k(   49) = (   0.0468750  -0.4961604   0.0000000), wk =   0.0078125
        k(   50) = (   0.0468750  -0.4600760   0.0000000), wk =   0.0078125
        k(   51) = (   0.0468750  -0.4239916   0.0000000), wk =   0.0078125
        k(   52) = (   0.0468750  -0.3879072   0.0000000), wk =   0.0078125
        k(   53) = (   0.0468750  -0.3518228   0.0000000), wk =   0.0078125
        k(   54) = (   0.0468750  -0.3157384   0.0000000), wk =   0.0078125
        k(   55) = (   0.0468750  -0.2796540   0.0000000), wk =   0.0078125
        k(   56) = (   0.0468750  -0.2435696   0.0000000), wk =   0.0078125
        k(   57) = (   0.0468750  -0.2074853   0.0000000), wk =   0.0078125
        k(   58) = (   0.0468750  -0.1714009   0.0000000), wk =   0.0078125
        k(   59) = (   0.0468750  -0.1353165   0.0000000), wk =   0.0078125
        k(   60) = (   0.0468750  -0.0992321   0.0000000), wk =   0.0078125
[...]
        k(  258) = (   0.3906250  -0.2976962   0.0000000), wk =   0.0078125
        k(  259) = (   0.3906250  -0.2616118   0.0000000), wk =   0.0078125
        k(  260) = (   0.3906250  -0.2255274   0.0000000), wk =   0.0039062
        k(  261) = (   0.4218750   0.7307089   0.0000000), wk =   0.0039062
[...]
        k(    5) = (   0.0156741   0.1719396   0.0000000), wk =   0.0078125
        k(    6) = (   0.0156741   0.2081375   0.0000000), wk =   0.0078125
        k(    7) = (   0.0156741   0.2443353   0.0000000), wk =   0.0078125
        k(    8) = (   0.0156741   0.2805331   0.0000000), wk =   0.0078125
        k(    9) = (   0.0156741   0.3167309   0.0000000), wk =   0.0078125
        k(   10) = (   0.0156741   0.3529288   0.0000000), wk =   0.0078125
        k(   11) = (   0.0156741   0.3891266   0.0000000), wk =   0.0078125
        k(   12) = (   0.0156741   0.4253244   0.0000000), wk =   0.0078125
        k(   13) = (   0.0156741   0.4615222   0.0000000), wk =   0.0078125
        k(   14) = (   0.0156741   0.4977200   0.0000000), wk =   0.0078125
        k(   15) = (   0.0156741   0.5339179   0.0000000), wk =   0.0078125
        k(   16) = (   0.0156741   0.5701157   0.0000000), wk =   0.0078125
        k(   17) = (   0.0156741  -0.5520168   0.0000000), wk =   0.0078125
        k(   18) = (   0.0156741  -0.5158189   0.0000000), wk =   0.0078125
        k(   19) = (   0.0156741  -0.4796211   0.0000000), wk =   0.0078125
        k(   20) = (   0.0156741  -0.4434233   0.0000000), wk =   0.0078125
        k(   21) = (   0.0156741  -0.4072255   0.0000000), wk =   0.0078125
        k(   22) = (   0.0156741  -0.3710277   0.0000000), wk =   0.0078125
        k(   23) = (   0.0156741  -0.3348298   0.0000000), wk =   0.0078125
        k(   24) = (   0.0156741  -0.2986320   0.0000000), wk =   0.0078125
        k(   25) = (   0.0156741  -0.2624342   0.0000000), wk =   0.0078125
        k(   26) = (   0.0156741  -0.2262364   0.0000000), wk =   0.0078125
        k(   27) = (   0.0156741  -0.1900386   0.0000000), wk =   0.0078125
        k(   28) = (   0.0156741  -0.1538407   0.0000000), wk =   0.0078125
        k(   29) = (   0.0156741  -0.1176429   0.0000000), wk =   0.0078125
        k(   30) = (   0.0156741  -0.0814451   0.0000000), wk =   0.0078125
        k(   31) = (   0.0156741  -0.0452473   0.0000000), wk =   0.0078125
        k(   32) = (   0.0156741  -0.0090495   0.0000000), wk =   0.0039062
        k(   33) = (   0.0470223   0.0814451   0.0000000), wk =   0.0039062
        k(   34) = (   0.0470223   0.1176429   0.0000000), wk =   0.0078125
        k(   35) = (   0.0470223   0.1538407   0.0000000), wk =   0.0078125
        k(   36) = (   0.0470223   0.1900386   0.0000000), wk =   0.0078125
        k(   37) = (   0.0470223   0.2262364   0.0000000), wk =   0.0078125
        k(   38) = (   0.0470223   0.2624342   0.0000000), wk =   0.0078125
        k(   39) = (   0.0470223   0.2986320   0.0000000), wk =   0.0078125
        k(   40) = (   0.0470223   0.3348298   0.0000000), wk =   0.0078125
        k(   41) = (   0.0470223   0.3710277   0.0000000), wk =   0.0078125
        k(   42) = (   0.0470223   0.4072255   0.0000000), wk =   0.0078125
        k(   43) = (   0.0470223   0.4434233   0.0000000), wk =   0.0078125
        k(   44) = (   0.0470223   0.4796211   0.0000000), wk =   0.0078125
        k(   45) = (   0.0470223   0.5158189   0.0000000), wk =   0.0078125
        k(   46) = (   0.0470223   0.5520168   0.0000000), wk =   0.0078125
        k(   47) = (   0.0470223   0.5882146   0.0000000), wk =   0.0078125
        k(   48) = (   0.0470223  -0.5339179   0.0000000), wk =   0.0078125
        k(   49) = (   0.0470223  -0.4977200   0.0000000), wk =   0.0078125
        k(   50) = (   0.0470223  -0.4615222   0.0000000), wk =   0.0078125
        k(   51) = (   0.0470223  -0.4253244   0.0000000), wk =   0.0078125
        k(   52) = (   0.0470223  -0.3891266   0.0000000), wk =   0.0078125
        k(   53) = (   0.0470223  -0.3529288   0.0000000), wk =   0.0078125
        k(   54) = (   0.0470223  -0.3167309   0.0000000), wk =   0.0078125
        k(   55) = (   0.0470223  -0.2805331   0.0000000), wk =   0.0078125
        k(   56) = (   0.0470223  -0.2443353   0.0000000), wk =   0.0078125
        k(   57) = (   0.0470223  -0.2081375   0.0000000), wk =   0.0078125
        k(   58) = (   0.0470223  -0.1719396   0.0000000), wk =   0.0078125
        k(   59) = (   0.0470223  -0.1357418   0.0000000), wk =   0.0078125
        k(   60) = (   0.0470223  -0.0995440   0.0000000), wk =   0.0078125
[...]
        k(  258) = (   0.3918529  -0.2986320   0.0000000), wk =   0.0078125
        k(  259) = (   0.3918529  -0.2624342   0.0000000), wk =   0.0078125
        k(  260) = (   0.3918529  -0.2262364   0.0000000), wk =   0.0039062
        k(  261) = (   0.4232011   0.7330059   0.0000000), wk =   0.0039062
        k(  262) = (   0.4232011   0.7692037   0.0000000), wk =   0.0078125
        k(  263) = (   0.4232011   0.8054015   0.0000000), wk =   0.0078125
        k(  264) = (   0.4232011  -0.3167309   0.0000000), wk =   0.0078125
        k(  265) = (   0.4232011  -0.2805331   0.0000000), wk =   0.0078125
        k(  266) = (   0.4232011  -0.2443353   0.0000000), wk =   0.0039062
        k(  267) = (   0.4545494   0.7873026   0.0000000), wk =   0.0039062
        k(  268) = (   0.4545494   0.8235004   0.0000000), wk =   0.0078125
        k(  269) = (   0.4545494  -0.2986320   0.0000000), wk =   0.0078125
        k(  270) = (   0.4545494  -0.2624342   0.0000000), wk =   0.0039062
        k(  271) = (   0.4858976   0.8415993   0.0000000), wk =   0.0039062
        k(  272) = (   0.4858976  -0.2805331   0.0000000), wk =   0.0039062

                       cryst. coord.
        k(    1) = (   0.0156250   0.0156250   0.0000000), wk =   0.0039062
        k(    2) = (   0.0156250   0.0468750   0.0000000), wk =   0.0078125
        k(    3) = (   0.0156250   0.0781250   0.0000000), wk =   0.0078125
        k(    4) = (   0.0156250   0.1093750   0.0000000), wk =   0.0078125
        k(    5) = (   0.0156250   0.1406250   0.0000000), wk =   0.0078125
        k(    6) = (   0.0156250   0.1718750   0.0000000), wk =   0.0078125
        k(    7) = (   0.0156250   0.2031250   0.0000000), wk =   0.0078125
        k(    8) = (   0.0156250   0.2343750   0.0000000), wk =   0.0078125
        k(    9) = (   0.0156250   0.2656250   0.0000000), wk =   0.0078125
        k(   10) = (   0.0156250   0.2968750   0.0000000), wk =   0.0078125
        k(   11) = (   0.0156250   0.3281250   0.0000000), wk =   0.0078125
        k(   12) = (   0.0156250   0.3593750   0.0000000), wk =   0.0078125
        k(   13) = (   0.0156250   0.3906250   0.0000000), wk =   0.0078125
        k(   14) = (   0.0156250   0.4218750   0.0000000), wk =   0.0078125
        k(   15) = (   0.0156250   0.4531250   0.0000000), wk =   0.0078125
        k(   16) = (   0.0156250   0.4843750   0.0000000), wk =   0.0078125
        k(   17) = (   0.0156250  -0.4843750   0.0000000), wk =   0.0078125
        k(   18) = (   0.0156250  -0.4531250   0.0000000), wk =   0.0078125
        k(   19) = (   0.0156250  -0.4218750   0.0000000), wk =   0.0078125
        k(   20) = (   0.0156250  -0.3906250   0.0000000), wk =   0.0078125
        k(   21) = (   0.0156250  -0.3593750   0.0000000), wk =   0.0078125
        k(   22) = (   0.0156250  -0.3281250   0.0000000), wk =   0.0078125
        k(   23) = (   0.0156250  -0.2968750   0.0000000), wk =   0.0078125
        k(   24) = (   0.0156250  -0.2656250   0.0000000), wk =   0.0078125
        k(   25) = (   0.0156250  -0.2343750   0.0000000), wk =   0.0078125
        k(   26) = (   0.0156250  -0.2031250   0.0000000), wk =   0.0078125
        k(   27) = (   0.0156250  -0.1718750   0.0000000), wk =   0.0078125
        k(   28) = (   0.0156250  -0.1406250   0.0000000), wk =   0.0078125
        k(   29) = (   0.0156250  -0.1093750   0.0000000), wk =   0.0078125
        k(   30) = (   0.0156250  -0.0781250   0.0000000), wk =   0.0078125
        k(   31) = (   0.0156250  -0.0468750   0.0000000), wk =   0.0078125
        k(   32) = (   0.0156250  -0.0156250   0.0000000), wk =   0.0039062
        k(   33) = (   0.0468750   0.0468750   0.0000000), wk =   0.0039062
        k(   34) = (   0.0468750   0.0781250   0.0000000), wk =   0.0078125
        k(   35) = (   0.0468750   0.1093750   0.0000000), wk =   0.0078125
        k(   36) = (   0.0468750   0.1406250   0.0000000), wk =   0.0078125
        k(   37) = (   0.0468750   0.1718750   0.0000000), wk =   0.0078125
        k(   38) = (   0.0468750   0.2031250   0.0000000), wk =   0.0078125
        k(   39) = (   0.0468750   0.2343750   0.0000000), wk =   0.0078125
        k(   40) = (   0.0468750   0.2656250   0.0000000), wk =   0.0078125
        k(   41) = (   0.0468750   0.2968750   0.0000000), wk =   0.0078125
        k(   42) = (   0.0468750   0.3281250   0.0000000), wk =   0.0078125
        k(   43) = (   0.0468750   0.3593750   0.0000000), wk =   0.0078125
        k(   44) = (   0.0468750   0.3906250   0.0000000), wk =   0.0078125
        k(   45) = (   0.0468750   0.4218750   0.0000000), wk =   0.0078125
        k(   46) = (   0.0468750   0.4531250   0.0000000), wk =   0.0078125
        k(   47) = (   0.0468750   0.4843750   0.0000000), wk =   0.0078125
        k(   48) = (   0.0468750  -0.4843750   0.0000000), wk =   0.0078125
        k(   49) = (   0.0468750  -0.4531250   0.0000000), wk =   0.0078125
        k(   50) = (   0.0468750  -0.4218750   0.0000000), wk =   0.0078125
        k(   51) = (   0.0468750  -0.3906250   0.0000000), wk =   0.0078125
        k(   52) = (   0.0468750  -0.3593750   0.0000000), wk =   0.0078125
        k(   53) = (   0.0468750  -0.3281250   0.0000000), wk =   0.0078125
        k(   54) = (   0.0468750  -0.2968750   0.0000000), wk =   0.0078125
        k(   55) = (   0.0468750  -0.2656250   0.0000000), wk =   0.0078125
        k(   56) = (   0.0468750  -0.2343750   0.0000000), wk =   0.0078125
        k(   57) = (   0.0468750  -0.2031250   0.0000000), wk =   0.0078125
        k(   58) = (   0.0468750  -0.1718750   0.0000000), wk =   0.0078125
        k(   59) = (   0.0468750  -0.1406250   0.0000000), wk =   0.0078125
        k(   60) = (   0.0468750  -0.1093750   0.0000000), wk =   0.0078125
[...]
        k(  258) = (   0.3906250  -0.4531250   0.0000000), wk =   0.0078125
        k(  259) = (   0.3906250  -0.4218750   0.0000000), wk =   0.0078125
        k(  260) = (   0.3906250  -0.3906250   0.0000000), wk =   0.0039062
        k(  261) = (   0.4218750   0.4218750   0.0000000), wk =   0.0039062
        k(  262) = (   0.4218750   0.4531250   0.0000000), wk =   0.0078125
        k(  263) = (   0.4218750   0.4843750   0.0000000), wk =   0.0078125
        k(  264) = (   0.4218750  -0.4843750   0.0000000), wk =   0.0078125
        k(  265) = (   0.4218750  -0.4531250   0.0000000), wk =   0.0078125
        k(  266) = (   0.4218750  -0.4218750   0.0000000), wk =   0.0039062
        k(  267) = (   0.4531250   0.4531250   0.0000000), wk =   0.0039062
        k(  268) = (   0.4531250   0.4843750   0.0000000), wk =   0.0078125
        k(  269) = (   0.4531250  -0.4843750   0.0000000), wk =   0.0078125
        k(  270) = (   0.4531250  -0.4531250   0.0000000), wk =   0.0039062
        k(  271) = (   0.4843750   0.4843750   0.0000000), wk =   0.0039062
        k(  272) = (   0.4843750  -0.4843750   0.0000000), wk =   0.0039062

     Initial potential from superposition of free atoms

     starting charge       7.9999, renormalised to       8.0000

     negative rho (up, down):  2.495E-06 0.000E+00
     Starting wfcs are    8 randomized atomic wfcs

     Self-consistent Calculation

[...]

     negative rho (up, down):  7.389E-07 0.000E+00

[...]

     negative rho (up, down):  1.224E-07 0.000E+00

[...]

     total energy              =     -24.12350114 Ry
     estimated scf accuracy    <          1.0E-09 Ry

     iteration #  7     ecut=   100.00 Ry     beta= 0.70
     Davidson diagonalization with overlap

     ethr =  1.30E-11,  avg # of iterations =  3.0

     End of self-consistent calculation

[...]

          k = 0.4859-0.2805 0.0000 ( 14478 PWs)   bands (ev):

[...]

     occupation numbers
     1.0000   1.0000   1.0000   1.0000  -0.0000  -0.0000  -0.0000  -0.0000

     the Fermi energy is    -2.9254 ev

!    total energy              =     -24.12350114 Ry
     estimated scf accuracy    <          7.0E-12 Ry
     smearing contrib. (-TS)   =       0.00000037 Ry
     internal energy E=F+TS    =     -24.12350152 Ry

     The total energy is F=E-TS. E is the sum of the following terms:
     one-electron contribution =    -289.37969066 Ry
     hartree contribution      =     145.84938972 Ry
     xc contribution           =      -8.56932865 Ry
     ewald contribution        =     127.97612807 Ry

     convergence has been achieved in   7 iterations

     Forces acting on atoms (cartesian axes, Ry/au):

     atom    1 type  1   force =     0.00000000   -0.00000000    0.00000000
     atom    2 type  1   force =    -0.00000000    0.00000000    0.00000000
     The non-local contrib.  to forces
     atom    1 type  1   force =     0.00000000   -0.00000000    0.00000000
     atom    2 type  1   force =     0.00000000    0.00000000    0.00000000
     The ionic contribution  to forces
     atom    1 type  1   force =     0.00000000   -0.00000000    0.00000000
     atom    2 type  1   force =    -0.00000000    0.00000000    0.00000000
     The local contribution  to forces
     atom    1 type  1   force =     0.00000000    0.00000000    0.00000000
     atom    2 type  1   force =    -0.00000000   -0.00000000    0.00000000
     The core correction contribution to forces
     atom    1 type  1   force =    -0.00000000    0.00000000    0.00000000
     atom    2 type  1   force =     0.00000000   -0.00000000    0.00000000
     The Hubbard contrib.    to forces
     atom    1 type  1   force =     0.00000000    0.00000000    0.00000000
     atom    2 type  1   force =     0.00000000    0.00000000    0.00000000
     The SCF correction term to forces
     atom    1 type  1   force =    -0.00000000   -0.00000000    0.00000000
     atom    2 type  1   force =     0.00000000    0.00000000   -0.00000000

     Total force =     0.000000     Total SCF correction =     0.000000

     Computing stress (Cartesian axis) and pressure

          total   stress  (Ry/bohr**3)                   (kbar)     P=        0.01
   0.00000007   0.00000000   0.00000000            0.01        0.00        0.00
   0.00000000   0.00000007   0.00000000            0.00        0.01        0.00
   0.00000000   0.00000000  -0.00000003            0.00        0.00       -0.00

     kinetic stress (kbar)   1878.39      0.00      0.00
                                0.00   1878.39      0.00
                               -0.00      0.00   2057.60

     local   stress (kbar) -51299.88      0.00     -0.00
                                0.00 -51299.88      0.00
                               -0.00      0.00  51884.98

     nonloc. stress (kbar)   -222.30     -0.00     -0.00
                               -0.00   -222.30      0.00
                                0.00      0.00   -185.72

     hartree stress (kbar)  24793.37     -0.00      0.00
                               -0.00  24793.37     -0.00
                                0.00     -0.00 -24655.00

     exc-cor stress (kbar)   -145.50      0.00      0.00
                                0.00   -145.50      0.00
                                0.00      0.00   -145.50

     corecor stress (kbar)   -282.77      0.00     -0.00
                                0.00   -282.77      0.00
                               -0.00      0.00   -275.41

     ewald   stress (kbar)  25278.71     -0.00      0.00
                               -0.00  25278.71      0.00
                                0.00      0.00 -28680.96

     hubbard stress (kbar)      0.00      0.00      0.00
                                0.00      0.00      0.00
                                0.00      0.00      0.00

     DFT-D   stress (kbar)      0.00      0.00      0.00
                                0.00      0.00      0.00
                                0.00      0.00      0.00

     XDM     stress (kbar)      0.00      0.00      0.00
                                0.00      0.00      0.00
                                0.00      0.00      0.00

     dft-nl  stress (kbar)      0.00      0.00      0.00
                                0.00      0.00      0.00
                                0.00      0.00      0.00

     TS-vdW  stress (kbar)      0.00      0.00      0.00
                                0.00      0.00      0.00
                                0.00      0.00      0.00

[...]

                                0.00      0.00      0.00

     Writing all to output data dir ./graphene.save/

     General routines

     Parallel routines

   This run was terminated on:  14: 9: 5   9Jun2022

   JOB DONE.
TACC:  Shutdown complete. Exiting.