     Program PWSCF v.6.4.1 starts on 30Jul2021 at 14:18:21

     Waiting for input...
     Reading input from standard input
     Message from routine read_cards :
     DEPRECATED: no units specified in CELL_PARAMETERS card

     Current dimensions of program PWSCF are:
     Max number of different atomic species (ntypx) = 10
     Max number of k-points (npk) =  40000
     Max angular momentum in pseudopotentials (lmaxx) =  3

     Subspace diagonalization in iterative solution of the eigenvalue problem:
     a serial algorithm will be used

     Message from routine setup:
     DEPRECATED: symmetry with ibrav=0, use correct ibrav instead

     bravais-lattice index     =            0
     lattice parameter (alat)  =       6.6641  a.u.
     unit-cell volume          =      74.2097 (a.u.)^3
     number of atoms/cell      =            2
     number of atomic types    =            1
     number of electrons       =         8.00
     number of Kohn-Sham states=            4
     kinetic-energy cutoff     =     100.0000  Ry
     charge density cutoff     =     400.0000  Ry
     convergence threshold     =      1.0E-06
     mixing beta               =       0.7000
     number of iterations used =            8  plain     mixing
     Exchange-correlation      = SLA PZ NOGX NOGC ( 1  1  0  0 0 0)
     nstep                     =           50

     celldm(1)=   6.664070  celldm(2)=   0.000000  celldm(3)=   0.000000
     celldm(4)=   0.000000  celldm(5)=   0.000000  celldm(6)=   0.000000

     crystal axes: (cart. coord. in units of alat)
               a(1) = (  -0.500500  -0.000000   0.500500 )
               a(2) = (   0.000000   0.500500   0.500500 )
               a(3) = (  -0.500500   0.500500   0.000000 )

     reciprocal axes: (cart. coord. in units 2 pi/alat)
               b(1) = ( -0.999001 -0.999001  0.999001 )
               b(2) = (  0.999001  0.999001  0.999001 )
               b(3) = ( -0.999001  0.999001 -0.999001 )

     PseudoPot. # 1 for C  read from file:
     ./\C.pz-vbc.UPF
     MD5 check sum: f697e42eaa1e52b77fcf7925dd36a1dd
     Pseudo is Norm-conserving, Zval =  4.0
     Generated by new atomic code, or converted to UPF format
     Using radial grid of  269 points,  1 beta functions with:
                l(1) =   0

     atomic species   valence    mass     pseudopotential
        C              4.00     1.00000     C ( 1.00)

     48 Sym. Ops., with inversion, found (24 have fractional translation)

   Cartesian axes

     site n.     atom                  positions (alat units)
         1           C   tau(   1) = (   0.0000000   0.0000000   0.0000000  )
         2           C   tau(   2) = (  -0.2502500   0.2502500   0.2502500  )

     number of k points=    28
                       cart. coord. in units 2pi/alat
        k(    1) = (  -0.0832501   0.0832501   0.0832501), wk =   0.0185185
        k(    2) = (  -0.2497502   0.2497502  -0.0832501), wk =   0.0555556
        k(    3) = (  -0.4162504   0.4162504  -0.2497502), wk =   0.0555556
        k(    4) = (   0.4162504  -0.4162504   0.5827506), wk =   0.0555556
        k(    5) = (   0.2497502  -0.2497502   0.4162504), wk =   0.0555556
        k(    6) = (   0.0832501  -0.0832501   0.2497502), wk =   0.0555556
        k(    7) = (  -0.0832501   0.4162504   0.0832501), wk =   0.0555556
        k(    8) = (  -0.2497502   0.5827506  -0.0832501), wk =   0.1111111
        k(    9) = (   0.5827506  -0.2497502   0.7492507), wk =   0.1111111
        k(   10) = (   0.4162504  -0.0832501   0.5827506), wk =   0.1111111
        k(   11) = (   0.2497502   0.0832501   0.4162504), wk =   0.1111111
        k(   12) = (  -0.0832501   0.7492507   0.0832501), wk =   0.0555556
        k(   13) = (   0.7492507  -0.0832501   0.9157509), wk =   0.1111111
        k(   14) = (   0.5827506   0.0832501   0.7492507), wk =   0.1111111
        k(   15) = (   0.4162504   0.2497502   0.5827506), wk =   0.1111111
        k(   16) = (  -0.0832501  -0.9157509   0.0832501), wk =   0.0555556
        k(   17) = (  -0.2497502  -0.7492507  -0.0832501), wk =   0.1111111
        k(   18) = (  -0.0832501  -0.5827506   0.0832501), wk =   0.0555556
        k(   19) = (  -0.2497502   0.2497502   0.2497502), wk =   0.0185185
        k(   20) = (  -0.4162504   0.4162504   0.0832501), wk =   0.0555556
        k(   21) = (   0.4162504  -0.4162504   0.9157509), wk =   0.0555556
        k(   22) = (   0.2497502  -0.2497502   0.7492507), wk =   0.0555556
        k(   23) = (  -0.2497502   0.5827506   0.2497502), wk =   0.0555556
        k(   24) = (   0.5827506  -0.2497502   1.0822511), wk =   0.1111111
        k(   25) = (   0.4162504  -0.0832501   0.9157509), wk =   0.1111111
        k(   26) = (  -0.2497502  -1.0822511   0.2497502), wk =   0.0555556
        k(   27) = (  -0.4162504   0.4162504   0.4162504), wk =   0.0185185
        k(   28) = (   0.4162504  -0.4162504   1.2487512), wk =   0.0555556

     Initial potential from superposition of free atoms

     starting charge    7.99994, renormalised to    8.00000
     Starting wfcs are    8 randomized atomic wfcs

     Self-consistent Calculation

     iteration #  1     ecut=   100.00 Ry     beta= 0.70
     Davidson diagonalization with overlap
     ethr =  1.00E-02,  avg # of iterations =  2.0

     total energy              =     -22.78752645 Ry
     Harris-Foulkes estimate   =     -22.86193830 Ry
     estimated scf accuracy    <       0.13998948 Ry

[...]

     total energy              =     -22.80164139 Ry
     Harris-Foulkes estimate   =     -22.80164304 Ry
     estimated scf accuracy    <       0.00000296 Ry

     iteration #  5     ecut=   100.00 Ry     beta= 0.70
     Davidson diagonalization with overlap
     ethr =  3.70E-08,  avg # of iterations =  2.4

     End of self-consistent calculation

          k =-0.0833 0.0833 0.0833 (  1249 PWs)   bands (ev):

    -7.7609  12.4503  13.3719  13.3719

[...]

          k = 0.4163-0.4163 0.5828 (  1243 PWs)   bands (ev):

[...]

          k =-0.4163 0.4163 0.4163 (  1254 PWs)   bands (ev):

[...]

          k = 0.4163-0.4163 1.2488 (  1246 PWs)   bands (ev):

    -1.5792   0.8622   8.1008   9.9769

     highest occupied level (ev):    13.3719

!    total energy              =     -22.80164233 Ry
     Harris-Foulkes estimate   =     -22.80164233 Ry
     estimated scf accuracy    <       0.00000001 Ry

     The total energy is the sum of the following terms:

     one-electron contribution =       8.30003488 Ry
     hartree contribution      =       1.84687929 Ry
     xc contribution           =      -7.10769167 Ry
     ewald contribution        =     -25.84086483 Ry

     convergence has been achieved in   5 iterations

     Forces acting on atoms (cartesian axes, Ry/au):

     atom    1 type  1   force =     0.00000000    0.00000000   -0.00000000
     atom    2 type  1   force =     0.00000000   -0.00000000    0.00000000

     Total force =     0.000000     Total SCF correction =     0.000000

     BFGS Geometry Optimization

     bfgs converged in   1 scf cycles and   0 bfgs steps
     (criteria: energy <  1.0E-04 Ry, force <  1.0E-03 Ry/Bohr)

     End of BFGS Geometry Optimization

     Final energy             =     -22.8016423338 Ry
Begin final coordinates

ATOMIC_POSITIONS (crystal)
C        0.000000000   0.000000000   0.000000000
C        0.250000000   0.250000000   0.250000000
End final coordinates

     Writing output data file diamond.save\

     General routines

     Parallel routines

   This run was terminated on:  14:18:22  30Jul2021

   JOB DONE.