     Program PHONON v.6.4.1 starts on 31Jul2021 at 14:18: 2

     Reading data from directory:
     ./\diamond.save\

     IMPORTANT: XC functional enforced from input :
     Exchange-correlation      = PZ ( 1  1  0  0 0 0)
     Any further DFT definition will be discarded
     Please, verify this is what you really want

     Dynamical matrices for ( 4, 4, 4)  uniform grid of q-points
     (   8 q-points):
       N         xq(1)         xq(2)         xq(3)
       1   0.000000000   0.000000000   0.000000000
       2  -0.250000000   0.250000000  -0.250000000
       3   0.500000000  -0.500000000   0.500000000
       4   0.000000000   0.500000000   0.000000000
       5   0.750000000  -0.250000000   0.750000000
       6   0.500000000   0.000000000   0.500000000
       7   0.000000000  -1.000000000   0.000000000
       8  -0.500000000  -1.000000000   0.000000000

     Calculation of q =    0.0000000   0.0000000   0.0000000

     this is a comment line

     bravais-lattice index     =            2
     lattice parameter (alat)  =       6.6641  a.u.
     unit-cell volume          =      73.9876 (a.u.)^3
     number of atoms/cell      =            2
     number of atomic types    =            1
     kinetic-energy cut-off    =     100.0000  Ry
     charge density cut-off    =     400.0000  Ry
     convergence threshold     =      1.0E-14
     beta                      =       0.7000
     number of iterations used =            4
     Exchange-correlation      = PZ ( 1  1  0  0 0 0)

     celldm(1)=    6.66407  celldm(2)=    0.00000  celldm(3)=    0.00000
     celldm(4)=    0.00000  celldm(5)=    0.00000  celldm(6)=    0.00000

     crystal axes: (cart. coord. in units of alat)
               a(1) = ( -0.5000  0.0000  0.5000 )
               a(2) = (  0.0000  0.5000  0.5000 )
               a(3) = ( -0.5000  0.5000  0.0000 )

     reciprocal axes: (cart. coord. in units 2 pi/alat)
               b(1) = ( -1.0000 -1.0000  1.0000 )
               b(2) = (  1.0000  1.0000  1.0000 )
               b(3) = ( -1.0000  1.0000 -1.0000 )

     Atoms inside the unit cell:

     Cartesian axes

     site n.  atom      mass           positions (alat units)
        1     C   12.0107   tau(    1) = (    0.00000    0.00000    0.00000  )
        2     C   12.0107   tau(    2) = (   -0.25000    0.25000    0.25000  )

     Computing dynamical matrix for
                    q = (   0.0000000   0.0000000   0.0000000 )

     49 Sym.Ops. (with q -> -q+G )

     G cutoff =  449.9656  (   9841 G-vectors)     FFT grid: ( 32, 32, 32)
     number of k points=    10

     PseudoPot. # 1 for C  read from file:
     ./\C.pz-vbc.UPF
     MD5 check sum: d1c1fc5d9cb49abb76ec42f727807be7
     Pseudo is Norm-conserving, Zval =  4.0
     Generated by new atomic code, or converted to UPF format
     Using radial grid of  269 points,  1 beta functions with:
                l(1) =   0

     Mode symmetry, O_h (m-3m)  point group:

     Electric field:
     Dielectric constant
     Born effective charges in two ways

     Atomic displacements:
     There are   2 irreducible representations

     Representation     1      3 modes -T_2g G_25' G_5+  To be done

     Representation     2      3 modes -T_1u G_15  G_4-  To be done

     Alpha used in Ewald sum =   2.8000

     Electric Fields Calculation

      thresh= 1.000E-02 alpha_mix =  0.700 |ddv_scf|^2 =  1.364E-08

[...]

     End of electric fields calculation

          Dielectric constant in cartesian axis

          (       5.712807031      -0.000000000      -0.000000000 )
          (       0.000000000       5.712807031       0.000000000 )
          (      -0.000000000       0.000000000       5.712807031 )

          Effective charges (d Force / dE) in cartesian axis

           atom      1   C
      Ex  (       -0.00239       -0.00000        0.00000 )
      Ey  (       -0.00000       -0.00239       -0.00000 )
      Ez  (       -0.00000       -0.00000       -0.00239 )
           atom      2   C
      Ex  (       -0.00239        0.00000        0.00000 )
      Ey  (        0.00000       -0.00239       -0.00000 )
      Ez  (        0.00000       -0.00000       -0.00239 )

     Representation #  1 modes #   1  2  3

     Self-consistent Calculation

[...]

     End of self-consistent calculation

     Convergence has been achieved

[...]

     Number of q in the star =    1
     List of q in the star:
          1   0.000000000   0.000000000   0.000000000

          Dielectric constant in cartesian axis

          (       5.712807031      -0.000000000      -0.000000000 )
          (       0.000000000       5.712807031       0.000000000 )
          (      -0.000000000       0.000000000       5.712807031 )

          Effective charges (d Force / dE) in cartesian axis

[...]

          Effective charges (d P / du) in cartesian axis

           atom      1   C
      Px  (       -0.00239       -0.00000        0.00000 )
      Py  (        0.00000       -0.00239       -0.00000 )
      Pz  (        0.00000       -0.00000       -0.00239 )
           atom      2   C
      Px  (       -0.00239        0.00000        0.00000 )
      Py  (        0.00000       -0.00239       -0.00000 )
      Pz  (        0.00000       -0.00000       -0.00239 )

     Diagonalizing the dynamical matrix

     q = (    0.000000000   0.000000000   0.000000000 )

     freq (    1) =      -0.205284 [THz] =      -6.847541 [cm-1]
     freq (    2) =      -0.205284 [THz] =      -6.847541 [cm-1]
     freq (    3) =      -0.205284 [THz] =      -6.847541 [cm-1]
     freq (    4) =      39.905710 [THz] =    1331.111197 [cm-1]
     freq (    5) =      39.905710 [THz] =    1331.111197 [cm-1]
     freq (    6) =      39.905710 [THz] =    1331.111197 [cm-1]

     Mode symmetry, O_h (m-3m)  point group:

     freq (  1 -  3) =         -6.8  [cm-1]   --> T_1u G_15  G_4- I
     freq (  4 -  6) =       1331.1  [cm-1]   --> T_2g G_25' G_5+ R

[...]

     Subspace diagonalization in iterative solution of the eigenvalue problem:
     a serial algorithm will be used

     Title:
     this is a comment line

     bravais-lattice index     =            2
     lattice parameter (alat)  =       6.6641  a.u.
     unit-cell volume          =      73.9876 (a.u.)^3
     number of atoms/cell      =            2
     number of atomic types    =            1
     number of electrons       =         8.00
     number of Kohn-Sham states=            4
     kinetic-energy cutoff     =     100.0000  Ry
     charge density cutoff     =     400.0000  Ry
     Exchange-correlation      = PZ ( 1  1  0  0 0 0)

[...]

     atomic species   valence    mass     pseudopotential
        C              4.00    12.01070     C ( 1.00)

     48 Sym. Ops., with inversion, found

[...]

     site n.     atom                  positions (alat units)
         1           C   tau(   1) = (   0.0000000   0.0000000   0.0000000  )
         2           C   tau(   2) = (  -0.2500000   0.2500000   0.2500000  )

     number of k points=   120

     Number of k-points >= 100: set verbosity='high' to print them.

     The potential is recalculated from file :
     ./\_ph0\diamond.save\charge-density

     Starting wfcs are    8 atomic wfcs

     Band Structure Calculation
     Davidson diagonalization with overlap

     ethr =  1.25E-10,  avg # of iterations =  9.4

     End of band structure calculation

     Number of k-points >= 100: set verbosity='high' to print the bands.

     highest occupied level (ev):    13.0802

     Writing output data file diamond.save\

[...]

      6 Sym.Ops. (no q -> -q+G )

[...]

     Mode symmetry, C_3v (3m)   point group:

[...]

     Representation     1      1 modes -A_1  L_1  To be done

     Representation     2      1 modes -A_1  L_1  To be done

     Representation     3      2 modes -E    L_3  To be done

     Representation     4      2 modes -E    L_3  To be done

[...]

     Representation #  1 mode #   1

[...]

     Mode symmetry, C_3v (3m)   point group:

     freq (  1 -  2) =        415.7  [cm-1]   --> E    L_3
     freq (  3 -  3) =        708.6  [cm-1]   --> A_1  L_1
     freq (  4 -  5) =       1278.3  [cm-1]   --> E    L_3
     freq (  6 -  6) =       1341.1  [cm-1]   --> A_1  L_1

[...]

     number of k points=    60
                       cart. coord. in units 2pi/alat
        k(    1) = (  -0.1250000   0.1250000   0.1250000), wk =   0.0468750
        k(    2) = (   0.3750000  -0.3750000   0.6250000), wk =   0.0000000
        k(    3) = (  -0.3750000   0.3750000  -0.1250000), wk =   0.0468750
        k(    4) = (   0.1250000  -0.1250000   0.3750000), wk =   0.0000000
        k(    5) = (   0.3750000  -0.3750000   0.6250000), wk =   0.0468750
        k(    6) = (   0.8750000  -0.8750000   1.1250000), wk =   0.0000000
        k(    7) = (   0.1250000  -0.1250000   0.3750000), wk =   0.0468750
        k(    8) = (   0.6250000  -0.6250000   0.8750000), wk =   0.0000000
        k(    9) = (  -0.1250000   0.6250000   0.1250000), wk =   0.0937500
        k(   10) = (   0.3750000   0.1250000   0.6250000), wk =   0.0000000
        k(   11) = (   0.6250000  -0.1250000   0.8750000), wk =   0.0937500
        k(   12) = (   1.1250000  -0.6250000   1.3750000), wk =   0.0000000
        k(   13) = (   0.3750000   0.1250000   0.6250000), wk =   0.0937500
        k(   14) = (   0.8750000  -0.3750000   1.1250000), wk =   0.0000000
        k(   15) = (  -0.1250000  -0.8750000   0.1250000), wk =   0.0937500
        k(   16) = (   0.3750000  -1.3750000   0.6250000), wk =   0.0000000
        k(   17) = (  -0.3750000   0.3750000   0.3750000), wk =   0.0468750
        k(   18) = (   0.1250000  -0.1250000   0.8750000), wk =   0.0000000
        k(   19) = (   0.3750000  -0.3750000   1.1250000), wk =   0.0468750
        k(   20) = (   0.8750000  -0.8750000   1.6250000), wk =   0.0000000
        k(   21) = (   0.1250000  -0.1250000   0.1250000), wk =   0.0156250
        k(   22) = (   0.6250000  -0.6250000   0.6250000), wk =   0.0000000
        k(   23) = (  -0.3750000  -0.3750000  -0.1250000), wk =   0.0937500
        k(   24) = (   0.1250000  -0.8750000   0.3750000), wk =   0.0000000
        k(   25) = (  -0.1250000  -0.3750000   0.3750000), wk =   0.0468750
        k(   26) = (   0.3750000  -0.8750000   0.8750000), wk =   0.0000000
        k(   27) = (   0.3750000   0.3750000   0.6250000), wk =   0.0937500
        k(   28) = (   0.8750000  -0.1250000   1.1250000), wk =   0.0000000
        k(   29) = (   0.6250000   0.3750000  -0.3750000), wk =   0.0468750
        k(   30) = (   1.1250000  -0.1250000   0.1250000), wk =   0.0000000
        k(   31) = (   0.1250000   0.1250000   0.3750000), wk =   0.0937500
        k(   32) = (   0.6250000  -0.3750000   0.8750000), wk =   0.0000000
        k(   33) = (   0.3750000   0.1250000  -0.1250000), wk =   0.0468750
        k(   34) = (   0.8750000  -0.3750000   0.3750000), wk =   0.0000000
        k(   35) = (  -0.1250000  -0.6250000  -0.1250000), wk =   0.0468750
        k(   36) = (   0.3750000  -1.1250000   0.3750000), wk =   0.0000000
        k(   37) = (   0.1250000  -0.6250000   0.1250000), wk =   0.0468750
        k(   38) = (   0.6250000  -1.1250000   0.6250000), wk =   0.0000000
        k(   39) = (   0.6250000   0.1250000   0.8750000), wk =   0.0937500
        k(   40) = (   1.1250000  -0.3750000   1.3750000), wk =   0.0000000
        k(   41) = (  -0.8750000   0.1250000   0.6250000), wk =   0.0937500
        k(   42) = (  -0.3750000  -0.3750000   1.1250000), wk =   0.0000000
        k(   43) = (   0.8750000   0.1250000  -0.6250000), wk =   0.0937500
        k(   44) = (   1.3750000  -0.3750000  -0.1250000), wk =   0.0000000
        k(   45) = (   0.3750000  -0.1250000   0.6250000), wk =   0.0937500
        k(   46) = (   0.8750000  -0.6250000   1.1250000), wk =   0.0000000
        k(   47) = (  -0.6250000  -0.1250000   0.3750000), wk =   0.0937500
        k(   48) = (  -0.1250000  -0.6250000   0.8750000), wk =   0.0000000
        k(   49) = (   0.6250000  -0.1250000  -0.3750000), wk =   0.0937500
        k(   50) = (   1.1250000  -0.6250000   0.1250000), wk =   0.0000000
        k(   51) = (  -0.1250000   0.8750000  -0.1250000), wk =   0.0468750
        k(   52) = (   0.3750000   0.3750000   0.3750000), wk =   0.0000000
        k(   53) = (   0.1250000   0.8750000   0.1250000), wk =   0.0468750
        k(   54) = (   0.6250000   0.3750000   0.6250000), wk =   0.0000000
        k(   55) = (   0.3750000  -0.3750000   0.3750000), wk =   0.0156250
        k(   56) = (   0.8750000  -0.8750000   0.8750000), wk =   0.0000000
        k(   57) = (   0.3750000   0.3750000   1.1250000), wk =   0.0937500
        k(   58) = (   0.8750000  -0.1250000   1.6250000), wk =   0.0000000
        k(   59) = (   1.1250000   0.3750000  -0.3750000), wk =   0.0468750
        k(   60) = (   1.6250000  -0.1250000   0.1250000), wk =   0.0000000

[...]

          k =-0.1250 0.1250 0.1250 (  1260 PWs)   bands (ev):

    -7.5032  11.2832  13.0802  13.0802

          k = 0.3750-0.3750 0.6250 (  1237 PWs)   bands (ev):

[...]

     Representation     1      1 modes -  To be done

[...]

     Mode symmetry, C_4v (4mm)  point group:

[...]

     Representation     1      1 modes -A_1  G_1 D_1  To be done

     Representation     2      1 modes -B_2  G_4 D_2'  To be done

     Representation     3      2 modes -E    G_5 D_5  To be done

     Representation     4      2 modes -E    G_5 D_5  To be done

[...]

     Mode symmetry, C_4v (4mm)  point group:

     freq (  1 -  2) =        541.5  [cm-1]   --> E    G_5 D_5
     freq (  3 -  3) =        765.5  [cm-1]   --> A_1  G_1 D_1
     freq (  4 -  5) =       1234.3  [cm-1]   --> E    G_5 D_5
     freq (  6 -  6) =       1352.8  [cm-1]   --> B_2  G_4 D_2'

[...]

     Mode symmetry, C_s (m)     point group:

[...]

     Representation     1      1 modes -A'  To be done

[...]

     Representation     4      1 modes -A'  To be done

     Representation     5      1 modes -A''  To be done

     Representation     6      1 modes -A''  To be done

[...]

     Mode symmetry, C_s (m)     point group:

     freq (  1 -  1) =        691.8  [cm-1]   --> A''
     freq (  2 -  2) =        838.5  [cm-1]   --> A'
     freq (  3 -  3) =        990.7  [cm-1]   --> A'
     freq (  4 -  4) =       1165.2  [cm-1]   --> A''
     freq (  5 -  5) =       1184.0  [cm-1]   --> A'
     freq (  6 -  6) =       1270.5  [cm-1]   --> A'

[...]

     number of k points=   144

     Number of k-points >= 100: set verbosity='high' to print them.

[...]

     Number of k-points >= 100: set verbosity='high' to print the bands.

[...]

     Mode symmetry, C_2v (mm2)  point group:

[...]

     Representation     6      1 modes -B_2  D_4  S_4  To be done

[...]

     Representation #  6 mode #   6

[...]

     Mode symmetry, C_2v (mm2)  point group:

     freq (  1 -  1) =        628.0  [cm-1]   --> B_1  D_3  S_3
     freq (  2 -  2) =        787.7  [cm-1]   --> B_2  D_4  S_4
     freq (  3 -  3) =        881.3  [cm-1]   --> A_1  D_1  S_1
     freq (  4 -  4) =       1191.5  [cm-1]   --> A_2  D_2  S_2
     freq (  5 -  5) =       1243.2  [cm-1]   --> B_2  D_4  S_4
     freq (  6 -  6) =       1271.5  [cm-1]   --> A_1  D_1  S_1

[...]

     17 Sym.Ops. (with q -> -q+G )

[...]

     Calculation of q =   -0.5000000  -1.0000000   0.0000000

     Title:
     this is a comment line

     bravais-lattice index     =            2
     lattice parameter (alat)  =       6.6641  a.u.
     unit-cell volume          =      73.9876 (a.u.)^3
     number of atoms/cell      =            2
     number of atomic types    =            1
     number of electrons       =         8.00
     number of Kohn-Sham states=            4
     kinetic-energy cutoff     =     100.0000  Ry
     charge density cutoff     =     400.0000  Ry
     Exchange-correlation      = PZ ( 1  1  0  0 0 0)

[...]

     atomic species   valence    mass     pseudopotential
        C              4.00    12.01070     C ( 1.00)

     48 Sym. Ops., with inversion, found

[...]

     site n.     atom                  positions (alat units)
         1           C   tau(   1) = (   0.0000000   0.0000000   0.0000000  )
         2           C   tau(   2) = (  -0.2500000   0.2500000   0.2500000  )

     number of k points=    64
                       cart. coord. in units 2pi/alat
        k(    1) = (  -0.1250000   0.1250000   0.1250000), wk =   0.0625000
        k(    2) = (  -0.6250000  -0.8750000   0.1250000), wk =   0.0000000
        k(    3) = (  -0.3750000   0.3750000  -0.1250000), wk =   0.0625000
        k(    4) = (  -0.8750000  -0.6250000  -0.1250000), wk =   0.0000000
        k(    5) = (   0.3750000  -0.3750000   0.6250000), wk =   0.0625000
        k(    6) = (  -0.1250000  -1.3750000   0.6250000), wk =   0.0000000
        k(    7) = (   0.1250000  -0.1250000   0.3750000), wk =   0.0625000
        k(    8) = (  -0.3750000  -1.1250000   0.3750000), wk =   0.0000000
        k(    9) = (  -0.1250000   0.6250000   0.1250000), wk =   0.0625000
        k(   10) = (  -0.6250000  -0.3750000   0.1250000), wk =   0.0000000
        k(   11) = (   0.6250000  -0.1250000   0.8750000), wk =   0.0625000
        k(   12) = (   0.1250000  -1.1250000   0.8750000), wk =   0.0000000
        k(   13) = (   0.3750000   0.1250000   0.6250000), wk =   0.0625000
        k(   14) = (  -0.1250000  -0.8750000   0.6250000), wk =   0.0000000
        k(   15) = (  -0.1250000  -0.8750000   0.1250000), wk =   0.0625000
        k(   16) = (  -0.6250000  -1.8750000   0.1250000), wk =   0.0000000
        k(   17) = (  -0.3750000   0.3750000   0.3750000), wk =   0.0625000
        k(   18) = (  -0.8750000  -0.6250000   0.3750000), wk =   0.0000000
        k(   19) = (   0.3750000  -0.3750000   1.1250000), wk =   0.0625000
        k(   20) = (  -0.1250000  -1.3750000   1.1250000), wk =   0.0000000
        k(   21) = (   0.1250000  -0.3750000   0.3750000), wk =   0.0625000
        k(   22) = (  -0.3750000  -1.3750000   0.3750000), wk =   0.0000000
        k(   23) = (   0.3750000  -0.3750000  -0.1250000), wk =   0.0625000
        k(   24) = (  -0.1250000  -1.3750000  -0.1250000), wk =   0.0000000
        k(   25) = (  -0.6250000   0.3750000  -0.3750000), wk =   0.0625000
        k(   26) = (  -1.1250000  -0.6250000  -0.3750000), wk =   0.0000000
        k(   27) = (  -0.3750000   0.3750000   0.6250000), wk =   0.0625000
        k(   28) = (  -0.8750000  -0.6250000   0.6250000), wk =   0.0000000
        k(   29) = (  -0.3750000   0.1250000  -0.1250000), wk =   0.0625000
        k(   30) = (  -0.8750000  -0.8750000  -0.1250000), wk =   0.0000000
        k(   31) = (  -0.1250000   0.1250000   0.3750000), wk =   0.0625000
        k(   32) = (  -0.6250000  -0.8750000   0.3750000), wk =   0.0000000
        k(   33) = (   0.1250000   0.6250000  -0.1250000), wk =   0.0625000
        k(   34) = (  -0.3750000  -0.3750000  -0.1250000), wk =   0.0000000
        k(   35) = (   0.6250000   0.1250000  -0.1250000), wk =   0.0625000
        k(   36) = (   0.1250000  -0.8750000  -0.1250000), wk =   0.0000000
        k(   37) = (  -0.8750000   0.1250000  -0.6250000), wk =   0.0625000
        k(   38) = (  -1.3750000  -0.8750000  -0.6250000), wk =   0.0000000
        k(   39) = (   0.8750000  -0.1250000   0.6250000), wk =   0.0625000
        k(   40) = (   0.3750000  -1.1250000   0.6250000), wk =   0.0000000
        k(   41) = (  -0.6250000   0.1250000   0.8750000), wk =   0.0625000
        k(   42) = (  -1.1250000  -0.8750000   0.8750000), wk =   0.0000000
        k(   43) = (  -0.1250000   0.8750000   0.6250000), wk =   0.0625000
        k(   44) = (  -0.6250000  -0.1250000   0.6250000), wk =   0.0000000
        k(   45) = (   0.1250000   0.8750000  -0.6250000), wk =   0.0625000
        k(   46) = (  -0.3750000  -0.1250000  -0.6250000), wk =   0.0000000
        k(   47) = (  -0.6250000  -0.1250000  -0.3750000), wk =   0.0625000
        k(   48) = (  -1.1250000  -1.1250000  -0.3750000), wk =   0.0000000
        k(   49) = (   0.6250000   0.1250000   0.3750000), wk =   0.0625000
        k(   50) = (   0.1250000  -0.8750000   0.3750000), wk =   0.0000000
        k(   51) = (  -0.3750000  -0.1250000   0.6250000), wk =   0.0625000
        k(   52) = (  -0.8750000  -1.1250000   0.6250000), wk =   0.0000000
        k(   53) = (   0.1250000   0.6250000   0.3750000), wk =   0.0625000
        k(   54) = (  -0.3750000  -0.3750000   0.3750000), wk =   0.0000000
        k(   55) = (  -0.1250000   0.6250000  -0.3750000), wk =   0.0625000
        k(   56) = (  -0.6250000  -0.3750000  -0.3750000), wk =   0.0000000
        k(   57) = (   0.1250000  -0.8750000  -0.1250000), wk =   0.0625000
        k(   58) = (  -0.3750000  -1.8750000  -0.1250000), wk =   0.0000000
        k(   59) = (  -0.8750000   0.1250000  -0.1250000), wk =   0.0625000
        k(   60) = (  -1.3750000  -0.8750000  -0.1250000), wk =   0.0000000
        k(   61) = (  -1.1250000   0.3750000  -0.3750000), wk =   0.0625000
        k(   62) = (  -1.6250000  -0.6250000  -0.3750000), wk =   0.0000000
        k(   63) = (  -0.3750000   0.3750000   1.1250000), wk =   0.0625000
        k(   64) = (  -0.8750000  -0.6250000   1.1250000), wk =   0.0000000

     The potential is recalculated from file :
     ./\_ph0\diamond.save\charge-density

     Starting wfcs are    8 atomic wfcs

     Band Structure Calculation
     Davidson diagonalization with overlap

     ethr =  1.25E-10,  avg # of iterations =  9.3

     End of band structure calculation

[...]

          k = 0.1250-0.8750-0.1250 (  1244 PWs)   bands (ev):

[...]

          k =-0.8750-0.6250 1.1250 (  1257 PWs)   bands (ev):

    -6.3447   8.5611  10.7521  11.7074

     highest occupied level (ev):    13.0802

     Writing output data file diamond.save\

     this is a comment line

     bravais-lattice index     =            2
     lattice parameter (alat)  =       6.6641  a.u.
     unit-cell volume          =      73.9876 (a.u.)^3
     number of atoms/cell      =            2
     number of atomic types    =            1
     kinetic-energy cut-off    =     100.0000  Ry
     charge density cut-off    =     400.0000  Ry
     convergence threshold     =      1.0E-14
     beta                      =       0.7000
     number of iterations used =            4
     Exchange-correlation      = PZ ( 1  1  0  0 0 0)

     celldm(1)=    6.66407  celldm(2)=    0.00000  celldm(3)=    0.00000
     celldm(4)=    0.00000  celldm(5)=    0.00000  celldm(6)=    0.00000

     crystal axes: (cart. coord. in units of alat)
               a(1) = ( -0.5000  0.0000  0.5000 )
               a(2) = (  0.0000  0.5000  0.5000 )
               a(3) = ( -0.5000  0.5000  0.0000 )

     reciprocal axes: (cart. coord. in units 2 pi/alat)
               b(1) = ( -1.0000 -1.0000  1.0000 )
               b(2) = (  1.0000  1.0000  1.0000 )
               b(3) = ( -1.0000  1.0000 -1.0000 )

     Atoms inside the unit cell:

     Cartesian axes

     site n.  atom      mass           positions (alat units)
        1     C   12.0107   tau(    1) = (    0.00000    0.00000    0.00000  )
        2     C   12.0107   tau(    2) = (   -0.25000    0.25000    0.25000  )

     Computing dynamical matrix for
                    q = (  -0.5000000  -1.0000000   0.0000000 )

      8 Sym.Ops. (no q -> -q+G )

     G cutoff =  449.9656  (   9841 G-vectors)     FFT grid: ( 32, 32, 32)
     number of k points=    64

     PseudoPot. # 1 for C  read from file:
     ./\C.pz-vbc.UPF
     MD5 check sum: d1c1fc5d9cb49abb76ec42f727807be7
     Pseudo is Norm-conserving, Zval =  4.0
     Generated by new atomic code, or converted to UPF format
     Using radial grid of  269 points,  1 beta functions with:
                l(1) =   0

     Atomic displacements:
     There are   3 irreducible representations

[...]

     Representation     3      2 modes -  To be done

     Alpha used in Ewald sum =   2.8000

[...]

     Representation #  3 modes #   5  6

     Self-consistent Calculation

[...]

      thresh= 1.069E-08 alpha_mix =  0.700 |ddv_scf|^2 =  8.706E-17

     End of self-consistent calculation

     Convergence has been achieved

     Number of q in the star =    6
     List of q in the star:
          1  -0.500000000  -1.000000000   0.000000000
          2   0.000000000   1.000000000   0.500000000
          3   0.000000000  -1.000000000  -0.500000000
          4   0.500000000   1.000000000   0.000000000
          5  -1.000000000  -0.500000000   0.000000000
          6   0.000000000  -0.500000000  -1.000000000

     Diagonalizing the dynamical matrix

     q = (   -0.500000000  -1.000000000   0.000000000 )

     freq (    1) =      27.938319 [THz] =     931.922015 [cm-1]
     freq (    2) =      27.938319 [THz] =     931.922015 [cm-1]
     freq (    3) =      30.588889 [THz] =    1020.335504 [cm-1]
     freq (    4) =      30.588889 [THz] =    1020.335504 [cm-1]
     freq (    5) =      35.744865 [THz] =    1192.320340 [cm-1]
     freq (    6) =      35.744865 [THz] =    1192.320340 [cm-1]

     General routines

     Parallel routines

     INITIALIZATION:

     DYNAMICAL MATRIX:

      General routines

   This run was terminated on:  14:25: 1  31Jul2021

   JOB DONE.