     Program PWSCF v.6.4.1 starts on 30Jul2021 at 14:11:31

     Waiting for input...
     Reading input from standard input
     Message from routine read_cards :
     DEPRECATED: no units specified in CELL_PARAMETERS card

     Current dimensions of program PWSCF are:
     Max number of different atomic species (ntypx) = 10
     Max number of k-points (npk) =  40000
     Max angular momentum in pseudopotentials (lmaxx) =  3

     Subspace diagonalization in iterative solution of the eigenvalue problem:
     a serial algorithm will be used

     Message from routine setup:
     DEPRECATED: symmetry with ibrav=0, use correct ibrav instead

     bravais-lattice index     =            0
     lattice parameter (alat)  =       6.6641  a.u.
     unit-cell volume          =      73.9875 (a.u.)^3
     number of atoms/cell      =            2
     number of atomic types    =            1
     number of electrons       =         8.00
     number of Kohn-Sham states=            4
     kinetic-energy cutoff     =     100.0000  Ry
     charge density cutoff     =     400.0000  Ry
     convergence threshold     =      1.0E-06
     mixing beta               =       0.7000
     number of iterations used =            8  plain     mixing
     Exchange-correlation      = SLA PZ NOGX NOGC ( 1  1  0  0 0 0)
     nstep                     =           50

     celldm(1)=   6.664070  celldm(2)=   0.000000  celldm(3)=   0.000000
     celldm(4)=   0.000000  celldm(5)=   0.000000  celldm(6)=   0.000000

     crystal axes: (cart. coord. in units of alat)
               a(1) = (  -0.500000  -0.000500   0.500000 )
               a(2) = (   0.000500   0.500000   0.500000 )
               a(3) = (  -0.499500   0.499500   0.000000 )

     reciprocal axes: (cart. coord. in units 2 pi/alat)
               b(1) = ( -0.999001 -0.999001  1.000000 )
               b(2) = (  0.999001  0.999001  1.000000 )
               b(3) = ( -1.001001  1.001001 -1.000000 )

     PseudoPot. # 1 for C  read from file:
     ./\C.pz-vbc.UPF
     MD5 check sum: f697e42eaa1e52b77fcf7925dd36a1dd
     Pseudo is Norm-conserving, Zval =  4.0
     Generated by new atomic code, or converted to UPF format
     Using radial grid of  269 points,  1 beta functions with:
                l(1) =   0

     atomic species   valence    mass     pseudopotential
        C              4.00     1.00000     C ( 1.00)

      8 Sym. Ops., with inversion, found ( 4 have fractional translation)

   Cartesian axes

     site n.     atom                  positions (alat units)
         1           C   tau(   1) = (   0.0000000   0.0000000   0.0000000  )
         2           C   tau(   2) = (  -0.2497500   0.2497500   0.2500000  )

     number of k points=    63
                       cart. coord. in units 2pi/alat
        k(    1) = (  -0.0834168   0.0834168   0.0833333), wk =   0.0185185
        k(    2) = (  -0.2502503   0.2502503  -0.0833333), wk =   0.0185185
        k(    3) = (  -0.4170838   0.4170838  -0.2500000), wk =   0.0185185
        k(    4) = (   0.4170838  -0.4170838   0.5833333), wk =   0.0185185
        k(    5) = (   0.2502503  -0.2502503   0.4166667), wk =   0.0185185
        k(    6) = (   0.0834168  -0.0834168   0.2500000), wk =   0.0185185
        k(    7) = (   0.0830834   0.2499169   0.2500000), wk =   0.0370370
        k(    8) = (  -0.0837501   0.4167504   0.0833333), wk =   0.0370370
        k(    9) = (  -0.2505836   0.5835839  -0.0833333), wk =   0.0370370
        k(   10) = (   0.5835839  -0.2505836   0.7500000), wk =   0.0370370
        k(   11) = (   0.4167504  -0.0837501   0.5833333), wk =   0.0370370
        k(   12) = (   0.2499169   0.0830834   0.4166667), wk =   0.0370370
        k(   13) = (   0.2495836   0.4164171   0.4166667), wk =   0.0370370
        k(   14) = (   0.0827501   0.5832506   0.2500000), wk =   0.0370370
        k(   15) = (  -0.0840834   0.7500841   0.0833333), wk =   0.0370370
        k(   16) = (   0.7500841  -0.0840834   0.9166667), wk =   0.0370370
        k(   17) = (   0.5832506   0.0827501   0.7500000), wk =   0.0370370
        k(   18) = (   0.4164171   0.2495836   0.5833333), wk =   0.0370370
        k(   19) = (  -0.5829172  -0.4160837  -0.4166667), wk =   0.0370370
        k(   20) = (  -0.7497507  -0.2492502  -0.5833333), wk =   0.0370370
        k(   21) = (  -0.9165842  -0.0824167  -0.7500000), wk =   0.0370370
        k(   22) = (  -0.0824167  -0.9165842   0.0833333), wk =   0.0370370
        k(   23) = (  -0.2492502  -0.7497507  -0.0833333), wk =   0.0370370
        k(   24) = (  -0.4160837  -0.5829172  -0.2500000), wk =   0.0370370
        k(   25) = (  -0.4164171  -0.2495836  -0.2500000), wk =   0.0370370
        k(   26) = (  -0.5832506  -0.0827501  -0.4166667), wk =   0.0370370
        k(   27) = (  -0.7500841   0.0840834  -0.5833333), wk =   0.0370370
        k(   28) = (   0.0840834  -0.7500841   0.2500000), wk =   0.0370370
        k(   29) = (  -0.0827501  -0.5832506   0.0833333), wk =   0.0370370
        k(   30) = (  -0.2495836  -0.4164171  -0.0833333), wk =   0.0370370
        k(   31) = (  -0.2499169  -0.0830834  -0.0833333), wk =   0.0370370
        k(   32) = (  -0.4167504   0.0837501  -0.2500000), wk =   0.0370370
        k(   33) = (  -0.5835839   0.2505836  -0.4166667), wk =   0.0370370
        k(   34) = (  -0.0834168   0.0834168   0.4166667), wk =   0.0185185
        k(   35) = (  -0.2502503   0.2502503   0.2500000), wk =   0.0185185
        k(   36) = (  -0.4170838   0.4170838   0.0833333), wk =   0.0185185
        k(   37) = (   0.4170838  -0.4170838   0.9166667), wk =   0.0185185
        k(   38) = (   0.2502503  -0.2502503   0.7500000), wk =   0.0185185
        k(   39) = (   0.0834168  -0.0834168   0.5833333), wk =   0.0185185
        k(   40) = (   0.0830834   0.2499169   0.5833333), wk =   0.0370370
        k(   41) = (  -0.0837501   0.4167504   0.4166667), wk =   0.0370370
        k(   42) = (  -0.2505836   0.5835839   0.2500000), wk =   0.0370370
        k(   43) = (   0.5835839  -0.2505836   1.0833333), wk =   0.0370370
        k(   44) = (   0.4167504  -0.0837501   0.9166667), wk =   0.0370370
        k(   45) = (   0.2499169   0.0830834   0.7500000), wk =   0.0370370
        k(   46) = (  -0.7494174  -0.5825839  -0.2500000), wk =   0.0370370
        k(   47) = (  -0.9162509  -0.4157504  -0.4166667), wk =   0.0370370
        k(   48) = (  -1.0830844  -0.2489169  -0.5833333), wk =   0.0370370
        k(   49) = (  -0.2489169  -1.0830844   0.2500000), wk =   0.0370370
        k(   50) = (  -0.4157504  -0.9162509   0.0833333), wk =   0.0370370
        k(   51) = (  -0.5825839  -0.7494174  -0.0833333), wk =   0.0370370
        k(   52) = (  -0.5829172  -0.4160837  -0.0833333), wk =   0.0370370
        k(   53) = (  -0.7497507  -0.2492502  -0.2500000), wk =   0.0370370
        k(   54) = (  -0.9165842  -0.0824167  -0.4166667), wk =   0.0370370
        k(   55) = (  -0.0834168   0.0834168   0.7500000), wk =   0.0185185
        k(   56) = (  -0.2502503   0.2502503   0.5833333), wk =   0.0185185
        k(   57) = (  -0.4170838   0.4170838   0.4166667), wk =   0.0185185
        k(   58) = (   0.4170838  -0.4170838   1.2500000), wk =   0.0185185
        k(   59) = (   0.2502503  -0.2502503   1.0833333), wk =   0.0185185
        k(   60) = (   0.0834168  -0.0834168   0.9166667), wk =   0.0185185
        k(   61) = (  -0.9159176  -0.7490841  -0.0833333), wk =   0.0370370
        k(   62) = (  -1.0827511  -0.5822506  -0.2500000), wk =   0.0370370
        k(   63) = (  -1.2495846  -0.4154171  -0.4166667), wk =   0.0370370

     Initial potential from superposition of free atoms

     starting charge    7.99994, renormalised to    8.00000
     Starting wfcs are    8 randomized atomic wfcs

     Self-consistent Calculation

     iteration #  1     ecut=   100.00 Ry     beta= 0.70
     Davidson diagonalization with overlap
     ethr =  1.00E-02,  avg # of iterations =  2.0

     total energy              =     -22.78743350 Ry
     Harris-Foulkes estimate   =     -22.86241382 Ry
     estimated scf accuracy    <       0.14092966 Ry

[...]

     total energy              =     -22.80164602 Ry
     Harris-Foulkes estimate   =     -22.80164864 Ry
     estimated scf accuracy    <       0.00000272 Ry

     iteration #  5     ecut=   100.00 Ry     beta= 0.70
     Davidson diagonalization with overlap
     ethr =  3.40E-08,  avg # of iterations =  2.5

     End of self-consistent calculation

          k =-0.0834 0.0834 0.0833 (  1249 PWs)   bands (ev):

    -7.7457  12.5082  13.4233  13.4245

[...]

          k = 0.4171-0.4171 0.5833 (  1234 PWs)   bands (ev):

[...]

          k = 0.0834-0.0834 0.9167 (  1249 PWs)   bands (ev):

[...]

          k =-1.2496-0.4154-0.4167 (  1238 PWs)   bands (ev):

    -1.5379   0.8886   8.1346  10.0155

     highest occupied level (ev):    13.4245

!    total energy              =     -22.80164689 Ry
     Harris-Foulkes estimate   =     -22.80164689 Ry
     estimated scf accuracy    <       0.00000001 Ry

     The total energy is the sum of the following terms:

     one-electron contribution =       8.33376919 Ry
     hartree contribution      =       1.84401481 Ry
     xc contribution           =      -7.11273598 Ry
     ewald contribution        =     -25.86669491 Ry

     convergence has been achieved in   5 iterations

     Forces acting on atoms (cartesian axes, Ry/au):

     atom    1 type  1   force =     0.00000000    0.00000000   -0.00062174
     atom    2 type  1   force =     0.00000000    0.00000000    0.00062174

     Total force =     0.000879     Total SCF correction =     0.000006

     BFGS Geometry Optimization

     bfgs converged in   1 scf cycles and   0 bfgs steps
     (criteria: energy <  1.0E-04 Ry, force <  1.0E-03 Ry/Bohr)

     End of BFGS Geometry Optimization

     Final energy             =     -22.8016468897 Ry
Begin final coordinates

ATOMIC_POSITIONS (crystal)
C        0.000000000   0.000000000   0.000000000
C        0.250000000   0.250000000   0.250000000
End final coordinates

     Writing output data file diamond.save\

     General routines

     Parallel routines

   This run was terminated on:  14:11:33  30Jul2021

   JOB DONE.