     Program PWSCF v.6.4.1 starts on 30Jul2021 at 14: 2:28

     Waiting for input...
     Reading input from standard input
     Message from routine read_cards :
     DEPRECATED: no units specified in CELL_PARAMETERS card

     Current dimensions of program PWSCF are:
     Max number of different atomic species (ntypx) = 10
     Max number of k-points (npk) =  40000
     Max angular momentum in pseudopotentials (lmaxx) =  3

     Subspace diagonalization in iterative solution of the eigenvalue problem:
     a serial algorithm will be used

     Message from routine setup:
     DEPRECATED: symmetry with ibrav=0, use correct ibrav instead

     bravais-lattice index     =            0
     lattice parameter (alat)  =       6.6641  a.u.
     unit-cell volume          =      73.9867 (a.u.)^3
     number of atoms/cell      =            2
     number of atomic types    =            1
     number of electrons       =         8.00
     number of Kohn-Sham states=            4
     kinetic-energy cutoff     =     100.0000  Ry
     charge density cutoff     =     400.0000  Ry
     convergence threshold     =      1.0E-06
     mixing beta               =       0.7000
     number of iterations used =            8  plain     mixing
     Exchange-correlation      = SLA PZ NOGX NOGC ( 1  1  0  0 0 0)
     nstep                     =           50

     celldm(1)=   6.664070  celldm(2)=   0.000000  celldm(3)=   0.000000
     celldm(4)=   0.000000  celldm(5)=   0.000000  celldm(6)=   0.000000

     crystal axes: (cart. coord. in units of alat)
               a(1) = (  -0.501000  -0.000000   0.498000 )
               a(2) = (   0.000000   0.501000   0.498000 )
               a(3) = (  -0.501000   0.501000   0.000000 )

     reciprocal axes: (cart. coord. in units 2 pi/alat)
               b(1) = ( -0.998004 -0.998004  1.004016 )
               b(2) = (  0.998004  0.998004  1.004016 )
               b(3) = ( -0.998004  0.998004 -1.004016 )

     PseudoPot. # 1 for C  read from file:
     ./\C.pz-vbc.UPF
     MD5 check sum: f697e42eaa1e52b77fcf7925dd36a1dd
     Pseudo is Norm-conserving, Zval =  4.0
     Generated by new atomic code, or converted to UPF format
     Using radial grid of  269 points,  1 beta functions with:
                l(1) =   0

     atomic species   valence    mass     pseudopotential
        C              4.00     1.00000     C ( 1.00)

     16 Sym. Ops., with inversion, found ( 8 have fractional translation)

   Cartesian axes

     site n.     atom                  positions (alat units)
         1           C   tau(   1) = (   0.0000000   0.0000000   0.0000000  )
         2           C   tau(   2) = (  -0.2505000   0.2505000   0.2490000  )

     number of k points=    63
                       cart. coord. in units 2pi/alat
        k(    1) = (  -0.0831670   0.0831670   0.0836680), wk =   0.0185185
        k(    2) = (  -0.2495010   0.2495010  -0.0836680), wk =   0.0185185
        k(    3) = (  -0.4158350   0.4158350  -0.2510040), wk =   0.0185185
        k(    4) = (   0.4158350  -0.4158350   0.5856760), wk =   0.0185185
        k(    5) = (   0.2495010  -0.2495010   0.4183400), wk =   0.0185185
        k(    6) = (   0.0831670  -0.0831670   0.2510040), wk =   0.0185185
        k(    7) = (   0.0831670   0.2495010   0.2510040), wk =   0.0370370
        k(    8) = (  -0.0831670   0.4158350   0.0836680), wk =   0.0370370
        k(    9) = (  -0.2495010   0.5821690  -0.0836680), wk =   0.0370370
        k(   10) = (   0.5821690  -0.2495010   0.7530120), wk =   0.0370370
        k(   11) = (   0.4158350  -0.0831670   0.5856760), wk =   0.0370370
        k(   12) = (   0.2495010   0.0831670   0.4183400), wk =   0.0370370
        k(   13) = (   0.2495010   0.4158350   0.4183400), wk =   0.0370370
        k(   14) = (   0.0831670   0.5821690   0.2510040), wk =   0.0370370
        k(   15) = (  -0.0831670   0.7485030   0.0836680), wk =   0.0370370
        k(   16) = (   0.7485030  -0.0831670   0.9203481), wk =   0.0370370
        k(   17) = (   0.5821690   0.0831670   0.7530120), wk =   0.0370370
        k(   18) = (   0.4158350   0.2495010   0.5856760), wk =   0.0370370
        k(   19) = (  -0.5821690  -0.4158350  -0.4183400), wk =   0.0370370
        k(   20) = (  -0.7485030  -0.2495010  -0.5856760), wk =   0.0370370
        k(   21) = (  -0.9148370  -0.0831670  -0.7530120), wk =   0.0370370
        k(   22) = (  -0.0831670  -0.9148370   0.0836680), wk =   0.0370370
        k(   23) = (  -0.2495010  -0.7485030  -0.0836680), wk =   0.0370370
        k(   24) = (  -0.4158350  -0.5821690  -0.2510040), wk =   0.0370370
        k(   25) = (  -0.4158350  -0.2495010  -0.2510040), wk =   0.0370370
        k(   26) = (  -0.5821690  -0.0831670  -0.4183400), wk =   0.0370370
        k(   27) = (  -0.7485030   0.0831670  -0.5856760), wk =   0.0370370
        k(   28) = (   0.0831670  -0.7485030   0.2510040), wk =   0.0370370
        k(   29) = (  -0.0831670  -0.5821690   0.0836680), wk =   0.0370370
        k(   30) = (  -0.2495010  -0.4158350  -0.0836680), wk =   0.0370370
        k(   31) = (  -0.2495010  -0.0831670  -0.0836680), wk =   0.0370370
        k(   32) = (  -0.4158350   0.0831670  -0.2510040), wk =   0.0370370
        k(   33) = (  -0.5821690   0.2495010  -0.4183400), wk =   0.0370370
        k(   34) = (  -0.0831670   0.0831670   0.4183400), wk =   0.0185185
        k(   35) = (  -0.2495010   0.2495010   0.2510040), wk =   0.0185185
        k(   36) = (  -0.4158350   0.4158350   0.0836680), wk =   0.0185185
        k(   37) = (   0.4158350  -0.4158350   0.9203481), wk =   0.0185185
        k(   38) = (   0.2495010  -0.2495010   0.7530120), wk =   0.0185185
        k(   39) = (   0.0831670  -0.0831670   0.5856760), wk =   0.0185185
        k(   40) = (   0.0831670   0.2495010   0.5856760), wk =   0.0370370
        k(   41) = (  -0.0831670   0.4158350   0.4183400), wk =   0.0370370
        k(   42) = (  -0.2495010   0.5821690   0.2510040), wk =   0.0370370
        k(   43) = (   0.5821690  -0.2495010   1.0876841), wk =   0.0370370
        k(   44) = (   0.4158350  -0.0831670   0.9203481), wk =   0.0370370
        k(   45) = (   0.2495010   0.0831670   0.7530120), wk =   0.0370370
        k(   46) = (  -0.7485030  -0.5821690  -0.2510040), wk =   0.0370370
        k(   47) = (  -0.9148370  -0.4158350  -0.4183400), wk =   0.0370370
        k(   48) = (  -1.0811710  -0.2495010  -0.5856760), wk =   0.0370370
        k(   49) = (  -0.2495010  -1.0811710   0.2510040), wk =   0.0370370
        k(   50) = (  -0.4158350  -0.9148370   0.0836680), wk =   0.0370370
        k(   51) = (  -0.5821690  -0.7485030  -0.0836680), wk =   0.0370370
        k(   52) = (  -0.5821690  -0.4158350  -0.0836680), wk =   0.0370370
        k(   53) = (  -0.7485030  -0.2495010  -0.2510040), wk =   0.0370370
        k(   54) = (  -0.9148370  -0.0831670  -0.4183400), wk =   0.0370370
        k(   55) = (  -0.0831670   0.0831670   0.7530120), wk =   0.0185185
        k(   56) = (  -0.2495010   0.2495010   0.5856760), wk =   0.0185185
        k(   57) = (  -0.4158350   0.4158350   0.4183400), wk =   0.0185185
        k(   58) = (   0.4158350  -0.4158350   1.2550201), wk =   0.0185185
        k(   59) = (   0.2495010  -0.2495010   1.0876841), wk =   0.0185185
        k(   60) = (   0.0831670  -0.0831670   0.9203481), wk =   0.0185185
        k(   61) = (  -0.9148370  -0.7485030  -0.0836680), wk =   0.0370370
        k(   62) = (  -1.0811710  -0.5821690  -0.2510040), wk =   0.0370370
        k(   63) = (  -1.2475050  -0.4158350  -0.4183400), wk =   0.0370370

     Initial potential from superposition of free atoms

     starting charge    7.99994, renormalised to    8.00000
     Starting wfcs are    8 randomized atomic wfcs

     Self-consistent Calculation

     iteration #  1     ecut=   100.00 Ry     beta= 0.70
     Davidson diagonalization with overlap
     ethr =  1.00E-02,  avg # of iterations =  2.0

     total energy              =     -22.78737833 Ry
     Harris-Foulkes estimate   =     -22.86235738 Ry
     estimated scf accuracy    <       0.14093282 Ry

[...]

     total energy              =     -22.80159127 Ry
     Harris-Foulkes estimate   =     -22.80159397 Ry
     estimated scf accuracy    <       0.00000286 Ry

     iteration #  5     ecut=   100.00 Ry     beta= 0.70
     Davidson diagonalization with overlap
     ethr =  3.58E-08,  avg # of iterations =  2.3

     End of self-consistent calculation

          k =-0.0832 0.0832 0.0837 (  1247 PWs)   bands (ev):

    -7.7458  12.5011  13.3935  13.4602

[...]

          k = 0.4158-0.4158 0.5857 (  1236 PWs)   bands (ev):

[...]

          k = 0.0832-0.0832 0.9203 (  1248 PWs)   bands (ev):

[...]

          k =-1.2475-0.4158-0.4183 (  1236 PWs)   bands (ev):

    -1.5424   0.8785   8.1104  10.0526

     highest occupied level (ev):    13.4602

!    total energy              =     -22.80159274 Ry
     Harris-Foulkes estimate   =     -22.80159218 Ry
     estimated scf accuracy    <       0.00000001 Ry

     The total energy is the sum of the following terms:

     one-electron contribution =       8.33420333 Ry
     hartree contribution      =       1.84388542 Ry
     xc contribution           =      -7.11272956 Ry
     ewald contribution        =     -25.86695193 Ry

     convergence has been achieved in   5 iterations

     Forces acting on atoms (cartesian axes, Ry/au):

     atom    1 type  1   force =     0.00000000    0.00000000   -0.00000000
     atom    2 type  1   force =     0.00000000    0.00000000    0.00000000

     Total force =     0.000000     Total SCF correction =     0.000000

     BFGS Geometry Optimization

     bfgs converged in   1 scf cycles and   0 bfgs steps
     (criteria: energy <  1.0E-04 Ry, force <  1.0E-03 Ry/Bohr)

     End of BFGS Geometry Optimization

     Final energy             =     -22.8015927359 Ry
Begin final coordinates

ATOMIC_POSITIONS (crystal)
C        0.000000000   0.000000000   0.000000000
C        0.250000000   0.250000000   0.250000000
End final coordinates

     Writing output data file diamond.save\

     General routines

     Parallel routines

   This run was terminated on:  14: 2:30  30Jul2021

   JOB DONE.