     Program PHONON v.7.0 starts on  9Jun2022 at 17:18:41

     K-points division:     npool     =    1024

     Reading input from ph.in
      Title line not specified: using 'default'.

     Reading xml data from directory:

     ./graphene.save/

     IMPORTANT: XC functional enforced from input :
     Exchange-correlation= PW
                           (   1   4   0   0   0   0   0)
     Any further DFT definition will be discarded
     Please, verify this is what you really want

     Using Slab Decomposition

     Message from routine divide_et_impera:
     suboptimal parallelization: some nodes have no k-points
     Reading collected, re-writing distributed wavefunctions

     Dynamical matrices for ( 8, 8, 1)  uniform grid of q-points
     (  10 q-points):
       N         xq(1)         xq(2)         xq(3)
       1   0.000000000   0.000000000   0.000000000
       2   0.000000000   0.144337567   0.000000000
       3   0.000000000   0.288675135   0.000000000
       4   0.000000000   0.433012702   0.000000000
       5   0.000000000  -0.577350269   0.000000000
       6   0.125000000   0.216506351   0.000000000
       7   0.125000000   0.360843918   0.000000000
       8   0.125000000   0.505181486   0.000000000
       9   0.250000000   0.433012702   0.000000000
      10   0.250000000   0.577350269   0.000000000

     Saving dvscf to file. Distribute only q points, not irreducible represetations.

     Calculation of q =    0.0000000   0.0000000   0.0000000

     default

     bravais-lattice index     =            4
     lattice parameter (alat)  =       4.6270  a.u.
     unit-cell volume          =     857.8851 (a.u.)^3
     number of atoms/cell      =            2
     number of atomic types    =            1
     kinetic-energy cut-off    =     100.0000  Ry
     charge density cut-off    =     400.0000  Ry
     convergence threshold     =      1.0E-14
     beta                      =       0.7000
     number of iterations used =            4
     Exchange-correlation= PW
                           (   1   4   0   0   0   0   0)

     celldm(1)=    4.62700  celldm(2)=    0.00000  celldm(3)=   10.00000
     celldm(4)=    0.00000  celldm(5)=    0.00000  celldm(6)=    0.00000

     crystal axes: (cart. coord. in units of alat)
               a(1) = (  1.0000  0.0000  0.0000 )
               a(2) = ( -0.5000  0.8660  0.0000 )
               a(3) = (  0.0000  0.0000 10.0000 )

     reciprocal axes: (cart. coord. in units 2 pi/alat)
               b(1) = (  1.0000  0.5774  0.0000 )
               b(2) = (  0.0000  1.1547  0.0000 )
               b(3) = (  0.0000  0.0000  0.1000 )

     Atoms inside the unit cell:

     Cartesian axes

     site n.  atom      mass           positions (alat units)
        1     C   12.0107   tau(    1) = (    0.00000    0.57735    0.00000  )
        2     C   12.0107   tau(    2) = (    0.50000    0.28868    0.00000  )

     Computing dynamical matrix for
                    q = (   0.0000000   0.0000000   0.0000000 )

     25 Sym.Ops. (with q -> -q+G )

     G cutoff =  216.9198  ( 115897 G-vectors)     FFT grid: ( 30, 30,300)

     number of k points=   272  Methfessel-Paxton smearing, width (Ry)=  0.0050

     PseudoPot. # 1 for C  read from file:
     ../pseudo/C.upf
     MD5 check sum: c9bd9c91d9c48f3c1b9c51e450525728
     Pseudo is Norm-conserving + core correction, Zval =  4.0
     Generated using ONCVPSP code by D. R. Hamann
     Using radial grid of 1234 points,  4 beta functions with:
                l(1) =   0
                l(2) =   0
                l(3) =   1
                l(4) =   1

     Mode symmetry, D_6h(6/mmm) point group:

     Atomic displacements:
     There are    4 irreducible representations

     Representation     1      1 modes -  To be done

[...]

     Alpha used in Ewald sum =   2.8000

     Representation #   1 mode #   1

     Self-consistent Calculation

     Pert. #  1: Fermi energy shift (Ry) =     0.0000E+00     0.0000E+00

      thresh= 1.000E-02 alpha_mix =  0.700 |ddv_scf|^2 =  2.096E-09

[...]

     End of self-consistent calculation

     Convergence has been achieved

     Representation #   2 modes #   2   3

[...]

     Representation #   4 modes #   5   6

[...]

     Pert. #  1: Fermi energy shift (Ry) =     8.7888E-25     5.8775E-39
     Pert. #  2: Fermi energy shift (Ry) =     7.4102E-25     9.3060E-39

[...]

     Number of q in the star =    1
     List of q in the star:
          1   0.000000000   0.000000000   0.000000000

     Diagonalizing the dynamical matrix

     q = (    0.000000000   0.000000000   0.000000000 )

     freq (    1) =      -0.475896 [THz] =     -15.874189 [cm-1]
     freq (    2) =      -0.475896 [THz] =     -15.874189 [cm-1]
     freq (    3) =       0.293007 [THz] =       9.773658 [cm-1]
     freq (    4) =      26.874389 [THz] =     896.433118 [cm-1]
     freq (    5) =      47.949155 [THz] =    1599.411658 [cm-1]
     freq (    6) =      47.949155 [THz] =    1599.411658 [cm-1]

     Mode symmetry, D_6h(6/mmm) point group:

     freq (   1-   2) =        -15.9  [cm-1]   --> E_1u            I
     freq (   3-   3) =          9.8  [cm-1]   --> A_2u            I
     freq (   4-   4) =        896.4  [cm-1]   --> B_1g
     freq (   5-   6) =       1599.4  [cm-1]   --> E_2g            R

[...]

     Subspace diagonalization in iterative solution of the eigenvalue problem:
     a serial algorithm will be used

[...]

     Title:
     default

     bravais-lattice index     =            4
     lattice parameter (alat)  =       4.6270  a.u.
     unit-cell volume          =     857.8851 (a.u.)^3
     number of atoms/cell      =            2
     number of atomic types    =            1
     number of electrons       =         8.00
     number of Kohn-Sham states=            8
     kinetic-energy cutoff     =     100.0000  Ry
     charge density cutoff     =     400.0000  Ry
     Exchange-correlation= PW
                           (   1   4   0   0   0   0   0)

[...]

     atomic species   valence    mass     pseudopotential
        C              4.00    12.01070     C ( 1.00)

     24 Sym. Ops., with inversion, found

[...]

     site n.     atom                  positions (alat units)
         1           C   tau(   1) = (   0.0000000   0.5773503   0.0000000  )
         2           C   tau(   2) = (   0.5000000   0.2886751   0.0000000  )

[...]

     Number of k-points >= 100: set verbosity='high' to print them.

     The potential is recalculated from file :
     ./_ph0/graphene.q_2/graphene.save/charge-density

     Starting wfcs are    8 atomic wfcs

     Band Structure Calculation
     Davidson diagonalization with overlap

     ethr =  1.25E-10,  avg # of iterations = 33.2

     End of band structure calculation

     Number of k-points >= 100: set verbosity='high' to print the bands.

     the Fermi energy is    -2.9206 ev

     Writing config to output data dir ./_ph0/graphene.q_2/graphene.save/

[...]

      4 Sym.Ops. (no q -> -q+G )

[...]

     Mode symmetry, C_2v (mm2)  point group:

[...]

     freq (   1-   1) =         39.7  [cm-1]   --> B_2  D_4  S_4
     freq (   2-   2) =        261.5  [cm-1]   --> B_1  D_3  S_3
     freq (   3-   3) =        421.1  [cm-1]   --> A_1  D_1  S_1
     freq (   4-   4) =        883.1  [cm-1]   --> B_2  D_4  S_4
     freq (   5-   5) =       1569.8  [cm-1]   --> B_1  D_3  S_3
     freq (   6-   6) =       1638.2  [cm-1]   --> A_1  D_1  S_1

[...]

     Calculation of q =    0.0000000  -0.5773503   0.0000000
     Message from routine divide_et_impera:
     suboptimal parallelization: some nodes have no k-points

[...]

      9 Sym.Ops. (with q -> -q+G )

[...]

     Mode symmetry, D_2h (mmm)  point group:

[...]

     Mode symmetry, D_2h (mmm)  point group:

     freq (   1-   1) =        475.1  [cm-1]   --> B_3g
     freq (   2-   2) =        626.0  [cm-1]   --> B_1g
     freq (   3-   3) =        638.8  [cm-1]   --> B_1u
     freq (   4-   4) =       1348.9  [cm-1]   --> B_2u
     freq (   5-   5) =       1374.8  [cm-1]   --> A_g
     freq (   6-   6) =       1436.1  [cm-1]   --> B_3u

[...]

     Mode symmetry, C_s (m)     point group:

[...]

     freq (   1-   1) =        258.8  [cm-1]   --> A''
     freq (   2-   2) =        639.7  [cm-1]   --> A'
     freq (   3-   3) =        783.6  [cm-1]   --> A''
     freq (   4-   4) =        965.9  [cm-1]   --> A'
     freq (   5-   5) =       1460.1  [cm-1]   --> A'
     freq (   6-   6) =       1561.5  [cm-1]   --> A'

[...]

     Mode symmetry, C_s (m)     point group:

     freq (   1-   1) =        427.7  [cm-1]   --> A''
     freq (   2-   2) =        666.4  [cm-1]   --> A''
     freq (   3-   3) =        723.2  [cm-1]   --> A'
     freq (   4-   4) =       1222.7  [cm-1]   --> A'
     freq (   5-   5) =       1422.7  [cm-1]   --> A'
     freq (   6-   6) =       1434.4  [cm-1]   --> A'

[...]

     Calculation of q =    0.2500000   0.5773503   0.0000000

     Using Slab Decomposition

     Title:
     default

     bravais-lattice index     =            4
     lattice parameter (alat)  =       4.6270  a.u.
     unit-cell volume          =     857.8851 (a.u.)^3
     number of atoms/cell      =            2
     number of atomic types    =            1
     number of electrons       =         8.00
     number of Kohn-Sham states=            8
     kinetic-energy cutoff     =     100.0000  Ry
     charge density cutoff     =     400.0000  Ry
     Exchange-correlation= PW
                           (   1   4   0   0   0   0   0)

[...]

     atomic species   valence    mass     pseudopotential
        C              4.00    12.01070     C ( 1.00)

     24 Sym. Ops., with inversion, found

[...]

     site n.     atom                  positions (alat units)
         1           C   tau(   1) = (   0.0000000   0.5773503   0.0000000  )
         2           C   tau(   2) = (   0.5000000   0.2886751   0.0000000  )

[...]

     Number of k-points >= 100: set verbosity='high' to print them.

     The potential is recalculated from file :
     ./_ph0/graphene.q_10/graphene.save/charge-density

     Starting wfcs are    8 atomic wfcs

     Band Structure Calculation
     Davidson diagonalization with overlap

     ethr =  1.25E-10,  avg # of iterations = 33.1

     End of band structure calculation

     Number of k-points >= 100: set verbosity='high' to print the bands.

     the Fermi energy is    -2.9206 ev

     Writing config to output data dir ./_ph0/graphene.q_10/graphene.save/

     default

     bravais-lattice index     =            4
     lattice parameter (alat)  =       4.6270  a.u.
     unit-cell volume          =     857.8851 (a.u.)^3
     number of atoms/cell      =            2
     number of atomic types    =            1
     kinetic-energy cut-off    =     100.0000  Ry
     charge density cut-off    =     400.0000  Ry
     convergence threshold     =      1.0E-14
     beta                      =       0.7000
     number of iterations used =            4
     Exchange-correlation= PW
                           (   1   4   0   0   0   0   0)

     celldm(1)=    4.62700  celldm(2)=    0.00000  celldm(3)=   10.00000
     celldm(4)=    0.00000  celldm(5)=    0.00000  celldm(6)=    0.00000

     crystal axes: (cart. coord. in units of alat)
               a(1) = (  1.0000  0.0000  0.0000 )
               a(2) = ( -0.5000  0.8660  0.0000 )
               a(3) = (  0.0000  0.0000 10.0000 )

     reciprocal axes: (cart. coord. in units 2 pi/alat)
               b(1) = (  1.0000  0.5774  0.0000 )
               b(2) = (  0.0000  1.1547  0.0000 )
               b(3) = (  0.0000  0.0000  0.1000 )

     Atoms inside the unit cell:

     Cartesian axes

     site n.  atom      mass           positions (alat units)
        1     C   12.0107   tau(    1) = (    0.00000    0.57735    0.00000  )
        2     C   12.0107   tau(    2) = (    0.50000    0.28868    0.00000  )

     Computing dynamical matrix for
                    q = (   0.2500000   0.5773503   0.0000000 )

      4 Sym.Ops. (no q -> -q+G )

     G cutoff =  216.9198  ( 115897 G-vectors)     FFT grid: ( 30, 30,300)

     number of k points=  3104  Methfessel-Paxton smearing, width (Ry)=  0.0050

     PseudoPot. # 1 for C  read from file:
     ../pseudo/C.upf
     MD5 check sum: c9bd9c91d9c48f3c1b9c51e450525728
     Pseudo is Norm-conserving + core correction, Zval =  4.0
     Generated using ONCVPSP code by D. R. Hamann
     Using radial grid of 1234 points,  4 beta functions with:
                l(1) =   0
                l(2) =   0
                l(3) =   1
                l(4) =   1

[...]

     Atomic displacements:
     There are    6 irreducible representations

[...]

     Representation     6      1 modes -  To be done

     Alpha used in Ewald sum =   2.8000

[...]

     Representation #   6 mode #   6

     Self-consistent Calculation

[...]

      thresh= 1.067E-07 alpha_mix =  0.700 |ddv_scf|^2 =  9.997E-15

     End of self-consistent calculation

     Convergence has been achieved

     Number of q in the star =    6
     List of q in the star:
          1   0.250000000   0.577350269   0.000000000
          2  -0.250000000  -0.577350269   0.000000000
          3   0.375000000   0.505181486   0.000000000
          4  -0.375000000  -0.505181486   0.000000000
          5   0.625000000  -0.072168784   0.000000000
          6  -0.625000000   0.072168784   0.000000000

     Diagonalizing the dynamical matrix

     q = (    0.250000000   0.577350269   0.000000000 )

     freq (    1) =      14.806873 [THz] =     493.904122 [cm-1]
     freq (    2) =      17.572904 [THz] =     586.168979 [cm-1]
     freq (    3) =      28.023295 [THz] =     934.756490 [cm-1]
     freq (    4) =      37.209906 [THz] =    1241.188875 [cm-1]
     freq (    5) =      38.789107 [THz] =    1293.865348 [cm-1]
     freq (    6) =      41.403393 [THz] =    1381.068528 [cm-1]

     Mode symmetry, C_2v (mm2)  point group:

     freq (   1-   1) =        493.9  [cm-1]   --> A_2  D_2  S_2
     freq (   2-   2) =        586.2  [cm-1]   --> B_1  D_3  S_3
     freq (   3-   3) =        934.8  [cm-1]   --> B_2  D_4  S_4
     freq (   4-   4) =       1241.2  [cm-1]   --> B_2  D_4  S_4
     freq (   5-   5) =       1293.9  [cm-1]   --> A_1  D_1  S_1
     freq (   6-   6) =       1381.1  [cm-1]   --> A_1  D_1  S_1

     General routines

     Parallel routines

     INITIALIZATION:

     DYNAMICAL MATRIX:

      General routines

   This run was terminated on:  17:32:10   9Jun2022

   JOB DONE.
TACC:  Shutdown complete. Exiting.