     Program PHONON v.6.4.1 starts on 31Jul2021 at 15:42:56

     Reading data from directory:
     ./\sto.save\

     IMPORTANT: XC functional enforced from input :
     Exchange-correlation      = PZ ( 1  1  0  0 0 0)
     Any further DFT definition will be discarded
     Please, verify this is what you really want

     WARNING: atomic wfc #  2 for atom type 1 has zero norm

     Dynamical matrices for ( 2, 2, 2)  uniform grid of q-points
     (   4 q-points):
       N         xq(1)         xq(2)         xq(3)
       1   0.000000000   0.000000000   0.000000000
       2   0.000000000   0.000000000  -0.505050505
       3   0.000000000  -0.505050505  -0.505050505
       4  -0.505050505  -0.505050505  -0.505050505

     Calculation of q =    0.0000000   0.0000000   0.0000000

     phonons of STO

     bravais-lattice index     =            0
     lattice parameter (alat)  =       7.2266  a.u.
     unit-cell volume          =     366.1910 (a.u.)^3
     number of atoms/cell      =            5
     number of atomic types    =            3
     kinetic-energy cut-off    =     210.0000  Ry
     charge density cut-off    =     840.0000  Ry
     convergence threshold     =      1.0E-14
     beta                      =       0.7000
     number of iterations used =            4
     Exchange-correlation      = PZ ( 1  1  0  0 0 0)

     celldm(1)=    7.22660  celldm(2)=    0.00000  celldm(3)=    0.00000
     celldm(4)=    0.00000  celldm(5)=    0.00000  celldm(6)=    0.00000

     crystal axes: (cart. coord. in units of alat)
               a(1) = (  0.9900  0.0000  0.0000 )
               a(2) = (  0.0000  0.9900  0.0000 )
               a(3) = (  0.0000  0.0000  0.9900 )

     reciprocal axes: (cart. coord. in units 2 pi/alat)
               b(1) = (  1.0101  0.0000  0.0000 )
               b(2) = (  0.0000  1.0101  0.0000 )
               b(3) = (  0.0000  0.0000  1.0101 )

     Atoms inside the unit cell:

     Cartesian axes

     site n.  atom      mass           positions (alat units)
        1     Sr  87.6200   tau(    1) = (    0.00000    0.00000    0.00000  )
        2     Ti  47.8670   tau(    2) = (    0.49500    0.49500    0.49500  )
        3     O   15.9994   tau(    3) = (    0.49500    0.00000    0.49500  )
        4     O   15.9994   tau(    4) = (    0.49500    0.49500    0.00000  )
        5     O   15.9994   tau(    5) = (    0.00000    0.49500    0.49500  )

     Computing dynamical matrix for
                    q = (   0.0000000   0.0000000   0.0000000 )

     49 Sym.Ops. (with q -> -q+G )

     G cutoff = 1111.1881  ( 150555 G-vectors)     FFT grid: ( 72, 72, 72)
     number of k points=     4

     PseudoPot. # 1 for Sr read from file:
     ./\Sr.pz-hgh.UPF
     MD5 check sum: 54edca056ca8507033bd308b37856725
     Pseudo is Norm-conserving, Zval =  2.0
     Generated in analytical, separable form
     Using radial grid of 1221 points,  6 beta functions with:
                l(1) =   0
                l(2) =   0
                l(3) =   0
                l(4) =   1
                l(5) =   1
                l(6) =   2

     PseudoPot. # 2 for Ti read from file:
     ./\Ti.pz-hgh.UPF
     MD5 check sum: 1a662028c571094befd68cedc9d53347
     Pseudo is Norm-conserving, Zval =  4.0
     Generated in analytical, separable form
     Using radial grid of 1177 points,  6 beta functions with:
                l(1) =   0
                l(2) =   0
                l(3) =   0
                l(4) =   1
                l(5) =   1
                l(6) =   2

     PseudoPot. # 3 for O  read from file:
     ./\O.pz-hgh.UPF
     MD5 check sum: c19d82c3bbe545ddf751ee352984c442
     Pseudo is Norm-conserving, Zval =  6.0
     Generated in analytical, separable form
     Using radial grid of 1095 points,  1 beta functions with:
                l(1) =   0

     Mode symmetry, O_h (m-3m)  point group:

     Electric field:
     Dielectric constant
     Born effective charges in two ways

     Atomic displacements:
     There are   5 irreducible representations

     Representation     1      3 modes -T_1u G_15  G_4-  To be done

[...]

     Alpha used in Ewald sum =   2.8000

     Electric Fields Calculation

      thresh= 1.000E-02 alpha_mix =  0.700 |ddv_scf|^2 =  5.956E-09

[...]

     End of electric fields calculation

          Dielectric constant in cartesian axis

          (       5.705346797       0.000000000       0.000000000 )
          (       0.000000000       5.705346797       0.000000000 )
          (       0.000000000       0.000000000       5.705346797 )

          Effective charges (d Force / dE) in cartesian axis

           atom      1   Sr
      Ex  (        2.56424        0.00000        0.00000 )
      Ey  (        0.00000        2.56424        0.00000 )
      Ez  (        0.00000        0.00000        2.56424 )
           atom      2   Ti
      Ex  (        6.82039        0.00000        0.00000 )
      Ey  (        0.00000        6.82039        0.00000 )
      Ez  (        0.00000        0.00000        6.82039 )
           atom      3   O
      Ex  (       -1.98357        0.00000        0.00000 )
      Ey  (        0.00000       -5.30072        0.00000 )
      Ez  (        0.00000        0.00000       -1.98357 )
           atom      4   O
      Ex  (       -1.98357        0.00000        0.00000 )
      Ey  (        0.00000       -1.98357        0.00000 )
      Ez  (        0.00000        0.00000       -5.30072 )
           atom      5   O
      Ex  (       -5.30072        0.00000        0.00000 )
      Ey  (        0.00000       -1.98357        0.00000 )
      Ez  (        0.00000        0.00000       -1.98357 )

     Representation #  1 modes #   1  2  3

     Self-consistent Calculation

[...]

     End of self-consistent calculation

     Convergence has been achieved

[...]

     Number of q in the star =    1
     List of q in the star:
          1   0.000000000   0.000000000   0.000000000

          Dielectric constant in cartesian axis

          (       5.705346797       0.000000000       0.000000000 )
          (       0.000000000       5.705346797       0.000000000 )
          (       0.000000000       0.000000000       5.705346797 )

          Effective charges (d Force / dE) in cartesian axis

[...]

          Effective charges (d P / du) in cartesian axis

           atom      1   Sr
      Px  (        2.56378        0.00000        0.00000 )
      Py  (        0.00000        2.56378        0.00000 )
      Pz  (        0.00000        0.00000        2.56378 )
           atom      2   Ti
      Px  (        6.81912        0.00000        0.00000 )
      Py  (        0.00000        6.81912        0.00000 )
      Pz  (        0.00000        0.00000        6.81912 )
           atom      3   O
      Px  (       -1.98447        0.00000        0.00000 )
      Py  (        0.00000       -5.29836        0.00000 )
      Pz  (        0.00000        0.00000       -1.98447 )
           atom      4   O
      Px  (       -1.98447        0.00000        0.00000 )
      Py  (        0.00000       -1.98447        0.00000 )
      Pz  (        0.00000        0.00000       -5.29836 )
           atom      5   O
      Px  (       -5.29836        0.00000        0.00000 )
      Py  (        0.00000       -1.98447        0.00000 )
      Pz  (        0.00000        0.00000       -1.98447 )

     Diagonalizing the dynamical matrix

     q = (    0.000000000   0.000000000   0.000000000 )

     freq (    1) =      -2.385445 [THz] =     -79.569890 [cm-1]
     freq (    2) =      -2.385445 [THz] =     -79.569890 [cm-1]
     freq (    3) =      -2.385445 [THz] =     -79.569890 [cm-1]
     freq (    4) =       3.893366 [THz] =     129.868698 [cm-1]
     freq (    5) =       3.893366 [THz] =     129.868698 [cm-1]
     freq (    6) =       3.893366 [THz] =     129.868698 [cm-1]
     freq (    7) =       4.083452 [THz] =     136.209305 [cm-1]
     freq (    8) =       4.083452 [THz] =     136.209305 [cm-1]
     freq (    9) =       4.083452 [THz] =     136.209305 [cm-1]
     freq (   10) =       7.512520 [THz] =     250.590680 [cm-1]
     freq (   11) =       7.512520 [THz] =     250.590680 [cm-1]
     freq (   12) =       7.512520 [THz] =     250.590680 [cm-1]
     freq (   13) =      18.041020 [THz] =     601.783642 [cm-1]
     freq (   14) =      18.041020 [THz] =     601.783642 [cm-1]
     freq (   15) =      18.041020 [THz] =     601.783642 [cm-1]

[...]

     freq (  1 -  3) =        -79.6  [cm-1]   --> T_1u G_15  G_4- I
     freq (  4 -  6) =        129.9  [cm-1]   --> T_1u G_15  G_4- I
     freq (  7 -  9) =        136.2  [cm-1]   --> T_1u G_15  G_4- I
     freq ( 10 - 12) =        250.6  [cm-1]   --> T_2u G_25  G_5-
     freq ( 13 - 15) =        601.8  [cm-1]   --> T_1u G_15  G_4- I

[...]

     Subspace diagonalization in iterative solution of the eigenvalue problem:
     a serial algorithm will be used

     Title:
     phonons of STO

     bravais-lattice index     =            0
     lattice parameter (alat)  =       7.2266  a.u.
     unit-cell volume          =     366.1910 (a.u.)^3
     number of atoms/cell      =            5
     number of atomic types    =            3
     number of electrons       =        24.00
     number of Kohn-Sham states=           12
     kinetic-energy cutoff     =     210.0000  Ry
     charge density cutoff     =     840.0000  Ry
     Exchange-correlation      = PZ ( 1  1  0  0 0 0)

[...]

     atomic species   valence    mass     pseudopotential
        Sr             2.00    87.62000     Sr( 1.00)
        Ti             4.00    47.86700     Ti( 1.00)
        O              6.00    15.99940     O ( 1.00)

     48 Sym. Ops., with inversion, found

[...]

     site n.     atom                  positions (alat units)
         1           Sr  tau(   1) = (   0.0000000   0.0000000   0.0000000  )
         2           Ti  tau(   2) = (   0.4950000   0.4950000   0.4950000  )
         3           O   tau(   3) = (   0.4950000   0.0000000   0.4950000  )
         4           O   tau(   4) = (   0.4950000   0.4950000   0.0000000  )
         5           O   tau(   5) = (   0.0000000   0.4950000   0.4950000  )

     number of k points=    12
                       cart. coord. in units 2pi/alat
        k(    1) = (   0.1262626   0.1262626   0.1262626), wk =   0.2500000
        k(    2) = (   0.1262626   0.1262626  -0.3787879), wk =   0.0000000
        k(    3) = (   0.1262626   0.1262626   0.3787879), wk =   0.2500000
        k(    4) = (   0.1262626   0.1262626  -0.1262626), wk =   0.0000000
        k(    5) = (   0.1262626   0.3787879   0.3787879), wk =   0.5000000
        k(    6) = (   0.1262626   0.3787879  -0.1262626), wk =   0.0000000
        k(    7) = (   0.3787879   0.3787879   0.3787879), wk =   0.2500000
        k(    8) = (   0.3787879   0.3787879  -0.1262626), wk =   0.0000000
        k(    9) = (   0.1262626   0.3787879   0.1262626), wk =   0.5000000
        k(   10) = (   0.1262626   0.3787879  -0.3787879), wk =   0.0000000
        k(   11) = (   0.3787879   0.3787879   0.1262626), wk =   0.2500000
        k(   12) = (   0.3787879   0.3787879  -0.3787879), wk =   0.0000000

     The potential is recalculated from file :
     ./\_ph0\sto.save\charge-density

     Starting wfcs are   18 atomic wfcs

     Band Structure Calculation
     Davidson diagonalization with overlap

     ethr =  4.17E-11,  avg # of iterations = 23.5

     End of band structure calculation

          k = 0.1263 0.1263 0.1263 ( 18862 PWs)   bands (ev):

   -11.4682 -10.2776 -10.2776   2.2613   2.6815   2.6815   3.8975   3.8975
     4.7126   5.0170   5.2240   5.2240

[...]

     highest occupied level (ev):     5.9086

     Writing output data file sto.save\

[...]

     Mode symmetry, D_4h(4/mmm) point group:

[...]

     Representation     1      1 modes -A_1g X_1  M_1  To be done

[...]

     Representation     4      2 modes -E_g  X_5  M_5  To be done

[...]

     Representation     7      1 modes -A_2u X_4' M_4'  To be done

[...]

     Representation     9      2 modes -E_u  X_5' M_5'  To be done

[...]

     Representation #  1 mode #   1

[...]

     freq (  1 -  2) =         62.9  [cm-1]   --> E_u  X_5' M_5'
     freq (  3 -  4) =         71.8  [cm-1]   --> E_g  X_5  M_5
     freq (  5 -  5) =        148.5  [cm-1]   --> A_2u X_4' M_4'
     freq (  6 -  7) =        218.3  [cm-1]   --> E_g  X_5  M_5
     freq (  8 -  8) =        301.0  [cm-1]   --> A_1g X_1  M_1
     freq (  9 -  9) =        306.5  [cm-1]   --> B_1g X_2  M_2
     freq ( 10 - 11) =        345.8  [cm-1]   --> E_u  X_5' M_5'
     freq ( 12 - 12) =        555.3  [cm-1]   --> A_1g X_1  M_1
     freq ( 13 - 14) =        574.3  [cm-1]   --> E_g  X_5  M_5
     freq ( 15 - 15) =        826.2  [cm-1]   --> A_2u X_4' M_4'

[...]

     Representation     4      1 modes -B_2g X_3  M_3  To be done

     Representation     5      2 modes -E_g  X_5  M_5  To be done

[...]

     Representation     8      1 modes -B_1u X_2' M_2'  To be done

[...]

     Representation    11      2 modes -E_u  X_5' M_5'  To be done

[...]

     Mode symmetry, D_4h(4/mmm) point group:

     freq (  1 -  1) =         16.0  [cm-1]   --> B_1g X_2  M_2
     freq (  2 -  2) =         39.6  [cm-1]   --> B_1u X_2' M_2'
     freq (  3 -  4) =         69.0  [cm-1]   --> E_u  X_5' M_5'
     freq (  5 -  5) =         70.9  [cm-1]   --> A_2u X_4' M_4'
     freq (  6 -  7) =        287.5  [cm-1]   --> E_u  X_5' M_5'
     freq (  8 -  9) =        350.2  [cm-1]   --> E_g  X_5  M_5
     freq ( 10 - 10) =        493.5  [cm-1]   --> A_1g X_1  M_1
     freq ( 11 - 12) =        497.3  [cm-1]   --> E_u  X_5' M_5'
     freq ( 13 - 13) =        537.6  [cm-1]   --> B_1u X_2' M_2'
     freq ( 14 - 14) =        582.1  [cm-1]   --> A_2g X_4  M_4
     freq ( 15 - 15) =        871.9  [cm-1]   --> B_2g X_3  M_3

     Calculation of q =   -0.5050505  -0.5050505  -0.5050505

     Title:
     phonons of STO

     bravais-lattice index     =            0
     lattice parameter (alat)  =       7.2266  a.u.
     unit-cell volume          =     366.1910 (a.u.)^3
     number of atoms/cell      =            5
     number of atomic types    =            3
     number of electrons       =        24.00
     number of Kohn-Sham states=           12
     kinetic-energy cutoff     =     210.0000  Ry
     charge density cutoff     =     840.0000  Ry
     Exchange-correlation      = PZ ( 1  1  0  0 0 0)

[...]

     atomic species   valence    mass     pseudopotential
        Sr             2.00    87.62000     Sr( 1.00)
        Ti             4.00    47.86700     Ti( 1.00)
        O              6.00    15.99940     O ( 1.00)

     48 Sym. Ops., with inversion, found

[...]

     site n.     atom                  positions (alat units)
         1           Sr  tau(   1) = (   0.0000000   0.0000000   0.0000000  )
         2           Ti  tau(   2) = (   0.4950000   0.4950000   0.4950000  )
         3           O   tau(   3) = (   0.4950000   0.0000000   0.4950000  )
         4           O   tau(   4) = (   0.4950000   0.4950000   0.0000000  )
         5           O   tau(   5) = (   0.0000000   0.4950000   0.4950000  )

     number of k points=     8
                       cart. coord. in units 2pi/alat
        k(    1) = (   0.1262626   0.1262626   0.1262626), wk =   0.2500000
        k(    2) = (  -0.3787879  -0.3787879  -0.3787879), wk =   0.0000000
        k(    3) = (   0.1262626   0.1262626   0.3787879), wk =   0.7500000
        k(    4) = (  -0.3787879  -0.3787879  -0.1262626), wk =   0.0000000
        k(    5) = (   0.1262626   0.3787879   0.3787879), wk =   0.7500000
        k(    6) = (  -0.3787879  -0.1262626  -0.1262626), wk =   0.0000000
        k(    7) = (   0.3787879   0.3787879   0.3787879), wk =   0.2500000
        k(    8) = (  -0.1262626  -0.1262626  -0.1262626), wk =   0.0000000

     The potential is recalculated from file :
     ./\_ph0\sto.save\charge-density

     Starting wfcs are   18 atomic wfcs

     Band Structure Calculation
     Davidson diagonalization with overlap

     ethr =  4.17E-11,  avg # of iterations = 23.8

     End of band structure calculation

[...]

          k =-0.3788-0.3788-0.3788 ( 18805 PWs)   bands (ev):

[...]

          k = 0.3788 0.3788 0.3788 ( 18805 PWs)   bands (ev):

[...]

          k =-0.1263-0.1263-0.1263 ( 18862 PWs)   bands (ev):

   -11.4682 -10.2776 -10.2776   2.2613   2.6815   2.6815   3.8975   3.8975
     4.7126   5.0170   5.2240   5.2240

     highest occupied level (ev):     5.9086

     Writing output data file sto.save\

     phonons of STO

     bravais-lattice index     =            0
     lattice parameter (alat)  =       7.2266  a.u.
     unit-cell volume          =     366.1910 (a.u.)^3
     number of atoms/cell      =            5
     number of atomic types    =            3
     kinetic-energy cut-off    =     210.0000  Ry
     charge density cut-off    =     840.0000  Ry
     convergence threshold     =      1.0E-14
     beta                      =       0.7000
     number of iterations used =            4
     Exchange-correlation      = PZ ( 1  1  0  0 0 0)

     celldm(1)=    7.22660  celldm(2)=    0.00000  celldm(3)=    0.00000
     celldm(4)=    0.00000  celldm(5)=    0.00000  celldm(6)=    0.00000

     crystal axes: (cart. coord. in units of alat)
               a(1) = (  0.9900  0.0000  0.0000 )
               a(2) = (  0.0000  0.9900  0.0000 )
               a(3) = (  0.0000  0.0000  0.9900 )

     reciprocal axes: (cart. coord. in units 2 pi/alat)
               b(1) = (  1.0101  0.0000  0.0000 )
               b(2) = (  0.0000  1.0101  0.0000 )
               b(3) = (  0.0000  0.0000  1.0101 )

     Atoms inside the unit cell:

     Cartesian axes

     site n.  atom      mass           positions (alat units)
        1     Sr  87.6200   tau(    1) = (    0.00000    0.00000    0.00000  )
        2     Ti  47.8670   tau(    2) = (    0.49500    0.49500    0.49500  )
        3     O   15.9994   tau(    3) = (    0.49500    0.00000    0.49500  )
        4     O   15.9994   tau(    4) = (    0.49500    0.49500    0.00000  )
        5     O   15.9994   tau(    5) = (    0.00000    0.49500    0.49500  )

     Computing dynamical matrix for
                    q = (  -0.5050505  -0.5050505  -0.5050505 )

     49 Sym.Ops. (with q -> -q+G )

     G cutoff = 1111.1881  ( 150555 G-vectors)     FFT grid: ( 72, 72, 72)
     number of k points=     8

     PseudoPot. # 1 for Sr read from file:
     ./\Sr.pz-hgh.UPF
     MD5 check sum: 54edca056ca8507033bd308b37856725
     Pseudo is Norm-conserving, Zval =  2.0
     Generated in analytical, separable form
     Using radial grid of 1221 points,  6 beta functions with:
                l(1) =   0
                l(2) =   0
                l(3) =   0
                l(4) =   1
                l(5) =   1
                l(6) =   2

     PseudoPot. # 2 for Ti read from file:
     ./\Ti.pz-hgh.UPF
     MD5 check sum: 1a662028c571094befd68cedc9d53347
     Pseudo is Norm-conserving, Zval =  4.0
     Generated in analytical, separable form
     Using radial grid of 1177 points,  6 beta functions with:
                l(1) =   0
                l(2) =   0
                l(3) =   0
                l(4) =   1
                l(5) =   1
                l(6) =   2

     PseudoPot. # 3 for O  read from file:
     ./\O.pz-hgh.UPF
     MD5 check sum: c19d82c3bbe545ddf751ee352984c442
     Pseudo is Norm-conserving, Zval =  6.0
     Generated in analytical, separable form
     Using radial grid of 1095 points,  1 beta functions with:
                l(1) =   0

[...]

     Atomic displacements:
     There are   6 irreducible representations

     Representation     1      3 modes -T_2g G_25' G_5+  To be done

     Representation     2      1 modes -A_2u G_2'  G_2-  To be done

     Representation     3      2 modes -E_u  G_12' G_3-  To be done

[...]

     Representation     6      3 modes -T_2u G_25  G_5-  To be done

     Alpha used in Ewald sum =   2.8000

[...]

     Representation #  2 mode #   4

[...]

     Representation #  6 modes #  13 14 15

     Self-consistent Calculation

[...]

      thresh= 1.398E-07 alpha_mix =  0.700 |ddv_scf|^2 =  9.875E-15

     End of self-consistent calculation

     Convergence has been achieved

     Number of q in the star =    1
     List of q in the star:
          1  -0.505050505  -0.505050505  -0.505050505

     Diagonalizing the dynamical matrix

     q = (   -0.505050505  -0.505050505  -0.505050505 )

     freq (    1) =      -1.909408 [THz] =     -63.690992 [cm-1]
     freq (    2) =      -1.909408 [THz] =     -63.690992 [cm-1]
     freq (    3) =      -1.909408 [THz] =     -63.690992 [cm-1]
     freq (    4) =       2.715314 [THz] =      90.573130 [cm-1]
     freq (    5) =       2.715314 [THz] =      90.573130 [cm-1]
     freq (    6) =       2.715314 [THz] =      90.573130 [cm-1]
     freq (    7) =      13.071384 [THz] =     436.014442 [cm-1]
     freq (    8) =      13.071384 [THz] =     436.014442 [cm-1]
     freq (    9) =      13.071384 [THz] =     436.014442 [cm-1]
     freq (   10) =      14.177545 [THz] =     472.911993 [cm-1]
     freq (   11) =      14.177545 [THz] =     472.911993 [cm-1]
     freq (   12) =      14.177545 [THz] =     472.911993 [cm-1]
     freq (   13) =      16.557534 [THz] =     552.299889 [cm-1]
     freq (   14) =      16.557534 [THz] =     552.299889 [cm-1]
     freq (   15) =      27.230621 [THz] =     908.315732 [cm-1]

     Mode symmetry, O_h (m-3m)  point group:

     freq (  1 -  3) =        -63.7  [cm-1]   --> T_2u G_25  G_5-
     freq (  4 -  6) =         90.6  [cm-1]   --> T_1u G_15  G_4-
     freq (  7 -  9) =        436.0  [cm-1]   --> T_2g G_25' G_5+
     freq ( 10 - 12) =        472.9  [cm-1]   --> T_1u G_15  G_4-
     freq ( 13 - 14) =        552.3  [cm-1]   --> E_u  G_12' G_3-
     freq ( 15 - 15) =        908.3  [cm-1]   --> A_2u G_2'  G_2-

     General routines

     Parallel routines

     INITIALIZATION:

     DYNAMICAL MATRIX:

      General routines

   This run was terminated on:  16:25: 1  31Jul2021

   JOB DONE.