     Program PWSCF v.6.4.1 starts on 31Jul2021 at 15:42: 3

     Waiting for input...
     Reading input from standard input
Warning: card &IONS ignored
Warning: card / ignored
     Message from routine read_cards :
     DEPRECATED: no units specified in CELL_PARAMETERS card

     Current dimensions of program PWSCF are:
     Max number of different atomic species (ntypx) = 10
     Max number of k-points (npk) =  40000
     Max angular momentum in pseudopotentials (lmaxx) =  3
     WARNING: atomic wfc #  2 for atom type 1 has zero norm

     Subspace diagonalization in iterative solution of the eigenvalue problem:
     a serial algorithm will be used

     Message from routine setup:
     DEPRECATED: symmetry with ibrav=0, use correct ibrav instead

     bravais-lattice index     =            0
     lattice parameter (alat)  =       7.2266  a.u.
     unit-cell volume          =     366.1910 (a.u.)^3
     number of atoms/cell      =            5
     number of atomic types    =            3
     number of electrons       =        24.00
     number of Kohn-Sham states=           12
     kinetic-energy cutoff     =     210.0000  Ry
     charge density cutoff     =     840.0000  Ry
     convergence threshold     =      1.0E-06
     mixing beta               =       0.7000
     number of iterations used =            8  plain     mixing
     Exchange-correlation      = SLA-PZ-NOGX-NOGC ( 1  1  0  0 0 0)

     celldm(1)=   7.226600  celldm(2)=   0.000000  celldm(3)=   0.000000
     celldm(4)=   0.000000  celldm(5)=   0.000000  celldm(6)=   0.000000

     crystal axes: (cart. coord. in units of alat)
               a(1) = (   0.990000   0.000000   0.000000 )
               a(2) = (   0.000000   0.990000   0.000000 )
               a(3) = (   0.000000   0.000000   0.990000 )

     reciprocal axes: (cart. coord. in units 2 pi/alat)
               b(1) = (  1.010101  0.000000  0.000000 )
               b(2) = (  0.000000  1.010101  0.000000 )
               b(3) = (  0.000000  0.000000  1.010101 )

     PseudoPot. # 1 for Sr read from file:
     ./\Sr.pz-hgh.UPF
     MD5 check sum: 5552efc4db197b2ba1ecd0aac753eaec
     Pseudo is Norm-conserving, Zval =  2.0
     Generated in analytical, separable form
     Using radial grid of 1221 points,  6 beta functions with:
                l(1) =   0
                l(2) =   0
                l(3) =   0
                l(4) =   1
                l(5) =   1
                l(6) =   2

     PseudoPot. # 2 for Ti read from file:
     ./\Ti.pz-hgh.UPF
     MD5 check sum: 849a1f4e05f7ae14b0501066d11aefd8
     Pseudo is Norm-conserving, Zval =  4.0
     Generated in analytical, separable form
     Using radial grid of 1177 points,  6 beta functions with:
                l(1) =   0
                l(2) =   0
                l(3) =   0
                l(4) =   1
                l(5) =   1
                l(6) =   2

     PseudoPot. # 3 for O  read from file:
     ./\O.pz-hgh.UPF
     MD5 check sum: 3607071b9a75e1baafacfeb9942a3292
     Pseudo is Norm-conserving, Zval =  6.0
     Generated in analytical, separable form
     Using radial grid of 1095 points,  1 beta functions with:
                l(1) =   0

     atomic species   valence    mass     pseudopotential
        Sr             2.00    87.62000     Sr( 1.00)
        Ti             4.00    47.97000     Ti( 1.00)
        O              6.00    16.00000     O ( 1.00)

     48 Sym. Ops., with inversion, found

   Cartesian axes

     site n.     atom                  positions (alat units)
         1           Sr  tau(   1) = (   0.0000000   0.0000000   0.0000000  )
         2           Ti  tau(   2) = (   0.4950000   0.4950000   0.4950000  )
         3           O   tau(   3) = (   0.4950000   0.0000000   0.4950000  )
         4           O   tau(   4) = (   0.4950000   0.4950000   0.0000000  )
         5           O   tau(   5) = (   0.0000000   0.4950000   0.4950000  )

     number of k points=     4
                       cart. coord. in units 2pi/alat
        k(    1) = (   0.1262626   0.1262626   0.1262626), wk =   0.2500000
        k(    2) = (   0.1262626   0.1262626   0.3787879), wk =   0.7500000
        k(    3) = (   0.1262626   0.3787879   0.3787879), wk =   0.7500000
        k(    4) = (   0.3787879   0.3787879   0.3787879), wk =   0.2500000

     Initial potential from superposition of free atoms

     starting charge   19.99355, renormalised to   24.00000
     Starting wfcs are   18 randomized atomic wfcs

     Self-consistent Calculation

     iteration #  1     ecut=   210.00 Ry     beta= 0.70
     Davidson diagonalization with overlap
     ethr =  1.00E-02,  avg # of iterations =  6.5

     total energy              =     -86.47370770 Ry
     Harris-Foulkes estimate   =    -109.71966913 Ry
     estimated scf accuracy    <      31.90597619 Ry

[...]

     negative rho (up, down):  1.515E-08 0.000E+00

[...]

     negative rho (up, down):  1.420E-08 0.000E+00

[...]

     total energy              =    -105.41213490 Ry
     Harris-Foulkes estimate   =    -105.41213543 Ry
     estimated scf accuracy    <       0.00000164 Ry

     iteration # 30     ecut=   210.00 Ry     beta= 0.70
     Davidson diagonalization with overlap
     ethr =  6.81E-09,  avg # of iterations =  1.5

     End of self-consistent calculation

          k = 0.1263 0.1263 0.1263 ( 18862 PWs)   bands (ev):

   -11.4703 -10.2798 -10.2798   2.2597   2.6801   2.6801   3.8958   3.8958
     4.7108   5.0144   5.2219   5.2219

[...]

          k = 0.3788 0.3788 0.3788 ( 18805 PWs)   bands (ev):

   -10.3344 -10.1289 -10.1289   1.2701   1.6145   1.6145   1.7210   1.8225
     1.8225   5.5959   5.5959   5.9058

     highest occupied level (ev):     5.9058

!    total energy              =    -105.41213468 Ry
     Harris-Foulkes estimate   =    -105.41213499 Ry
     estimated scf accuracy    <       0.00000040 Ry

     The total energy is the sum of the following terms:

     one-electron contribution =     -37.92360153 Ry
     hartree contribution      =      34.80530813 Ry
     xc contribution           =     -24.35709610 Ry
     ewald contribution        =     -77.93674518 Ry

     convergence has been achieved in  30 iterations

     Writing output data file sto.save\

     General routines

     Parallel routines

   This run was terminated on:  15:42:31  31Jul2021

   JOB DONE.