     Program PHONON v.6.4.1 starts on 31Jul2021 at 14:57:31

     Reading data from directory:
     ./\gaas.save\

     IMPORTANT: XC functional enforced from input :
     Exchange-correlation      = PZ ( 1  1  0  0 0 0)
     Any further DFT definition will be discarded
     Please, verify this is what you really want

     Dynamical matrices for ( 4, 4, 4)  uniform grid of q-points
     (   8 q-points):
       N         xq(1)         xq(2)         xq(3)
       1   0.000000000   0.000000000   0.000000000
       2  -0.250000000   0.250000000  -0.250000000
       3   0.500000000  -0.500000000   0.500000000
       4   0.000000000   0.500000000   0.000000000
       5   0.750000000  -0.250000000   0.750000000
       6   0.500000000   0.000000000   0.500000000
       7   0.000000000  -1.000000000   0.000000000
       8  -0.500000000  -1.000000000   0.000000000

     Calculation of q =    0.0000000   0.0000000   0.0000000

     phonons of GaAs

     bravais-lattice index     =            2
     lattice parameter (alat)  =      10.4749  a.u.
     unit-cell volume          =     287.3390 (a.u.)^3
     number of atoms/cell      =            2
     number of atomic types    =            2
     kinetic-energy cut-off    =      40.0000  Ry
     charge density cut-off    =     160.0000  Ry
     convergence threshold     =      1.0E-14
     beta                      =       0.7000
     number of iterations used =            4
     Exchange-correlation      = PZ ( 1  1  0  0 0 0)

     celldm(1)=   10.47494  celldm(2)=    0.00000  celldm(3)=    0.00000
     celldm(4)=    0.00000  celldm(5)=    0.00000  celldm(6)=    0.00000

     crystal axes: (cart. coord. in units of alat)
               a(1) = ( -0.5000  0.0000  0.5000 )
               a(2) = (  0.0000  0.5000  0.5000 )
               a(3) = ( -0.5000  0.5000  0.0000 )

     reciprocal axes: (cart. coord. in units 2 pi/alat)
               b(1) = ( -1.0000 -1.0000  1.0000 )
               b(2) = (  1.0000  1.0000  1.0000 )
               b(3) = ( -1.0000  1.0000 -1.0000 )

     Atoms inside the unit cell:

     Cartesian axes

     site n.  atom      mass           positions (alat units)
        1     Ga  69.7230   tau(    1) = (    0.00000    0.00000    0.00000  )
        2     As  74.9216   tau(    2) = (   -0.25000    0.25000    0.25000  )

     Computing dynamical matrix for
                    q = (   0.0000000   0.0000000   0.0000000 )

     25 Sym.Ops. (with q -> -q+G )

     G cutoff =  444.6961  (   9841 G-vectors)     FFT grid: ( 30, 30, 30)
     number of k points=    28

     PseudoPot. # 1 for Ga read from file:
     ./\Ga.pz-bhs.UPF
     MD5 check sum: 98e586e88b8512aeea599638ab896ed5
     Pseudo is Norm-conserving, Zval =  3.0
     Generated by new atomic code, or converted to UPF format
     Using radial grid of  523 points,  2 beta functions with:
                l(1) =   0
                l(2) =   1

     PseudoPot. # 2 for As read from file:
     ./\As.pz-bhs.UPF
     MD5 check sum: 13f7c76a6e1707474fd055f425e5c3c1
     Pseudo is Norm-conserving, Zval =  5.0
     Generated by new atomic code, or converted to UPF format
     Using radial grid of  525 points,  2 beta functions with:
                l(1) =   0
                l(2) =   1

     Mode symmetry, T_d (-43m)  point group:

     Electric field:
     Dielectric constant
     Born effective charges in two ways

     Atomic displacements:
     There are   2 irreducible representations

     Representation     1      3 modes -T_2  G_15 P_4  To be done

[...]

     Alpha used in Ewald sum =   1.7000

     Electric Fields Calculation

      thresh= 1.000E-02 alpha_mix =  0.700 |ddv_scf|^2 =  2.588E-07

[...]

     End of electric fields calculation

          Dielectric constant in cartesian axis

          (      11.568106239       0.000000000       0.000000000 )
          (       0.000000000      11.568106239       0.000000000 )
          (       0.000000000      -0.000000000      11.568106239 )

          Effective charges (d Force / dE) in cartesian axis

           atom      1   Ga
      Ex  (        2.02969        0.00000       -0.00000 )
      Ey  (        0.00000        2.02969        0.00000 )
      Ez  (       -0.00000        0.00000        2.02969 )
           atom      2   As
      Ex  (       -2.04551       -0.00000       -0.00000 )
      Ey  (       -0.00000       -2.04551        0.00000 )
      Ez  (       -0.00000        0.00000       -2.04551 )

     Representation #  1 modes #   1  2  3

     Self-consistent Calculation

[...]

     End of self-consistent calculation

     Convergence has been achieved

[...]

     Number of q in the star =    1
     List of q in the star:
          1   0.000000000   0.000000000   0.000000000

          Dielectric constant in cartesian axis

          (      11.568106239       0.000000000       0.000000000 )
          (       0.000000000      11.568106239       0.000000000 )
          (       0.000000000      -0.000000000      11.568106239 )

          Effective charges (d Force / dE) in cartesian axis

[...]

          Effective charges (d P / du) in cartesian axis

           atom      1   Ga
      Px  (        2.03044       -0.00000       -0.00000 )
      Py  (       -0.00000        2.03044        0.00000 )
      Pz  (       -0.00000        0.00000        2.03044 )
           atom      2   As
      Px  (       -2.04623       -0.00000       -0.00000 )
      Py  (       -0.00000       -2.04623        0.00000 )
      Pz  (       -0.00000        0.00000       -2.04623 )

     Diagonalizing the dynamical matrix

     q = (    0.000000000   0.000000000   0.000000000 )

     freq (    1) =      -0.226205 [THz] =      -7.545402 [cm-1]
     freq (    2) =      -0.226205 [THz] =      -7.545402 [cm-1]
     freq (    3) =      -0.226205 [THz] =      -7.545402 [cm-1]
     freq (    4) =       8.261694 [THz] =     275.580441 [cm-1]
     freq (    5) =       8.261694 [THz] =     275.580441 [cm-1]
     freq (    6) =       8.261694 [THz] =     275.580441 [cm-1]

     Mode symmetry, T_d (-43m)  point group:

     freq (  1 -  3) =         -7.5  [cm-1]   --> T_2  G_15 P_4   I+R
     freq (  4 -  6) =        275.6  [cm-1]   --> T_2  G_15 P_4   I+R

[...]

     Subspace diagonalization in iterative solution of the eigenvalue problem:
     a serial algorithm will be used

     Title:
     phonons of GaAs

     bravais-lattice index     =            2
     lattice parameter (alat)  =      10.4749  a.u.
     unit-cell volume          =     287.3390 (a.u.)^3
     number of atoms/cell      =            2
     number of atomic types    =            2
     number of electrons       =         8.00
     number of Kohn-Sham states=            4
     kinetic-energy cutoff     =      40.0000  Ry
     charge density cutoff     =     160.0000  Ry
     Exchange-correlation      = PZ ( 1  1  0  0 0 0)

[...]

     atomic species   valence    mass     pseudopotential
        Ga             3.00    69.72300     Ga( 1.00)
        As             5.00    74.92160     As( 1.00)

     24 Sym. Ops. (no inversion) found

[...]

     site n.     atom                  positions (alat units)
         1           Ga  tau(   1) = (   0.0000000   0.0000000   0.0000000  )
         2           As  tau(   2) = (  -0.2500000   0.2500000   0.2500000  )

     number of k points=   364

     Number of k-points >= 100: set verbosity='high' to print them.

     The potential is recalculated from file :
     ./\_ph0\gaas.save\charge-density

     Starting wfcs are    8 atomic wfcs

     Band Structure Calculation
     Davidson diagonalization with overlap

     ethr =  1.25E-10,  avg # of iterations = 14.1

     End of band structure calculation

     Number of k-points >= 100: set verbosity='high' to print the bands.

     highest occupied level (ev):     5.0691

     Writing output data file gaas.save\

[...]

      6 Sym.Ops. (no q -> -q+G )

[...]

     Mode symmetry, C_3v (3m)   point group:

[...]

     Representation     1      1 modes -A_1  L_1  To be done

[...]

     Representation     3      2 modes -E    L_3  To be done

[...]

     Representation #  1 mode #   1

[...]

     Number of q in the star =    4
     List of q in the star:
          1  -0.250000000   0.250000000  -0.250000000
          2   0.250000000  -0.250000000  -0.250000000
          3  -0.250000000  -0.250000000   0.250000000
          4   0.250000000   0.250000000   0.250000000
     In addition there is the -q list:
          1   0.250000000  -0.250000000   0.250000000
          2  -0.250000000   0.250000000   0.250000000
          3   0.250000000   0.250000000  -0.250000000
          4  -0.250000000  -0.250000000  -0.250000000

[...]

     freq (  1 -  2) =         52.7  [cm-1]   --> E    L_3
     freq (  3 -  3) =        131.4  [cm-1]   --> A_1  L_1
     freq (  4 -  5) =        267.7  [cm-1]   --> E    L_3
     freq (  6 -  6) =        279.5  [cm-1]   --> A_1  L_1

[...]

     Representation     2      1 modes -A_1  L_1  To be done

[...]

     Mode symmetry, C_3v (3m)   point group:

     freq (  1 -  2) =         62.6  [cm-1]   --> E    L_3
     freq (  3 -  3) =        212.9  [cm-1]   --> A_1  L_1
     freq (  4 -  4) =        239.3  [cm-1]   --> A_1  L_1
     freq (  5 -  6) =        265.6  [cm-1]   --> E    L_3

[...]

     Mode symmetry, C_2v (mm2)  point group:

[...]

     Mode symmetry, C_2v (mm2)  point group:

     freq (  1 -  1) =         71.4  [cm-1]   --> B_1  D_3  S_3
     freq (  2 -  2) =         71.4  [cm-1]   --> B_2  D_4  S_4
     freq (  3 -  3) =        134.7  [cm-1]   --> A_1  D_1  S_1
     freq (  4 -  4) =        258.9  [cm-1]   --> B_1  D_3  S_3
     freq (  5 -  5) =        258.9  [cm-1]   --> B_2  D_4  S_4
     freq (  6 -  6) =        284.1  [cm-1]   --> A_1  D_1  S_1

[...]

     Mode symmetry, C_s (m)     point group:

[...]

     Representation     1      1 modes -A'  To be done

[...]

     Representation     5      1 modes -A''  To be done

[...]

     Number of q in the star =   12
     List of q in the star:
          1   0.750000000  -0.250000000   0.750000000
          2  -0.750000000  -0.250000000  -0.750000000
          3   0.250000000  -0.750000000   0.750000000
          4  -0.750000000   0.250000000   0.750000000
          5   0.750000000   0.250000000  -0.750000000
          6   0.750000000   0.750000000  -0.250000000
          7  -0.750000000  -0.750000000  -0.250000000
          8  -0.750000000   0.750000000   0.250000000
          9  -0.250000000   0.750000000   0.750000000
         10   0.250000000   0.750000000  -0.750000000
         11  -0.250000000  -0.750000000  -0.750000000
         12   0.750000000  -0.750000000   0.250000000
     In addition there is the -q list:
          1  -0.750000000   0.250000000  -0.750000000
          2   0.750000000   0.250000000   0.750000000
          3  -0.250000000   0.750000000  -0.750000000
          4   0.750000000  -0.250000000  -0.750000000
          5  -0.750000000  -0.250000000   0.750000000
          6  -0.750000000  -0.750000000   0.250000000
          7   0.750000000   0.750000000   0.250000000
          8   0.750000000  -0.750000000  -0.250000000
          9   0.250000000  -0.750000000  -0.750000000
         10  -0.250000000  -0.750000000   0.750000000
         11   0.250000000   0.750000000   0.750000000
         12  -0.750000000   0.750000000  -0.250000000

[...]

     freq (  1 -  1) =         78.8  [cm-1]   --> A''
     freq (  2 -  2) =        107.6  [cm-1]   --> A'
     freq (  3 -  3) =        181.6  [cm-1]   --> A'
     freq (  4 -  4) =        237.7  [cm-1]   --> A'
     freq (  5 -  5) =        256.6  [cm-1]   --> A''
     freq (  6 -  6) =        269.0  [cm-1]   --> A'

[...]

     Representation     4      1 modes -A'  To be done

[...]

     Representation     6      1 modes -A''  To be done

[...]

     Mode symmetry, C_s (m)     point group:

     freq (  1 -  1) =         75.9  [cm-1]   --> A''
     freq (  2 -  2) =        106.8  [cm-1]   --> A'
     freq (  3 -  3) =        162.0  [cm-1]   --> A'
     freq (  4 -  4) =        239.2  [cm-1]   --> A'
     freq (  5 -  5) =        259.1  [cm-1]   --> A''
     freq (  6 -  6) =        274.4  [cm-1]   --> A'

[...]

      9 Sym.Ops. (with q -> -q+G )

[...]

     Mode symmetry, D_2d (-42m) point group:

[...]

     Representation     2      1 modes -B_2  X_3  W_2  To be done

     Representation     3      2 modes -E    X_5  W_3  To be done

     Representation     4      2 modes -E    X_5  W_3  To be done

[...]

     Representation #  4 modes #   5  6

[...]

     Mode symmetry, D_2d (-42m) point group:

     freq (  1 -  2) =         80.9  [cm-1]   --> E    X_5  W_3
     freq (  3 -  3) =        224.7  [cm-1]   --> A_1  X_1  W_1
     freq (  4 -  4) =        244.3  [cm-1]   --> B_2  X_3  W_2
     freq (  5 -  6) =        254.5  [cm-1]   --> E    X_5  W_3

     Calculation of q =   -0.5000000  -1.0000000   0.0000000

     Title:
     phonons of GaAs

     bravais-lattice index     =            2
     lattice parameter (alat)  =      10.4749  a.u.
     unit-cell volume          =     287.3390 (a.u.)^3
     number of atoms/cell      =            2
     number of atomic types    =            2
     number of electrons       =         8.00
     number of Kohn-Sham states=            4
     kinetic-energy cutoff     =      40.0000  Ry
     charge density cutoff     =     160.0000  Ry
     Exchange-correlation      = PZ ( 1  1  0  0 0 0)

[...]

     atomic species   valence    mass     pseudopotential
        Ga             3.00    69.72300     Ga( 1.00)
        As             5.00    74.92160     As( 1.00)

     24 Sym. Ops. (no inversion) found

[...]

     site n.     atom                  positions (alat units)
         1           Ga  tau(   1) = (   0.0000000   0.0000000   0.0000000  )
         2           As  tau(   2) = (  -0.2500000   0.2500000   0.2500000  )

     number of k points=   432

     Number of k-points >= 100: set verbosity='high' to print them.

     The potential is recalculated from file :
     ./\_ph0\gaas.save\charge-density

     Starting wfcs are    8 atomic wfcs

     Band Structure Calculation
     Davidson diagonalization with overlap

     ethr =  1.25E-10,  avg # of iterations = 14.1

     End of band structure calculation

     Number of k-points >= 100: set verbosity='high' to print the bands.

     highest occupied level (ev):     5.0691

     Writing output data file gaas.save\

     phonons of GaAs

     bravais-lattice index     =            2
     lattice parameter (alat)  =      10.4749  a.u.
     unit-cell volume          =     287.3390 (a.u.)^3
     number of atoms/cell      =            2
     number of atomic types    =            2
     kinetic-energy cut-off    =      40.0000  Ry
     charge density cut-off    =     160.0000  Ry
     convergence threshold     =      1.0E-14
     beta                      =       0.7000
     number of iterations used =            4
     Exchange-correlation      = PZ ( 1  1  0  0 0 0)

     celldm(1)=   10.47494  celldm(2)=    0.00000  celldm(3)=    0.00000
     celldm(4)=    0.00000  celldm(5)=    0.00000  celldm(6)=    0.00000

     crystal axes: (cart. coord. in units of alat)
               a(1) = ( -0.5000  0.0000  0.5000 )
               a(2) = (  0.0000  0.5000  0.5000 )
               a(3) = ( -0.5000  0.5000  0.0000 )

     reciprocal axes: (cart. coord. in units 2 pi/alat)
               b(1) = ( -1.0000 -1.0000  1.0000 )
               b(2) = (  1.0000  1.0000  1.0000 )
               b(3) = ( -1.0000  1.0000 -1.0000 )

     Atoms inside the unit cell:

     Cartesian axes

     site n.  atom      mass           positions (alat units)
        1     Ga  69.7230   tau(    1) = (    0.00000    0.00000    0.00000  )
        2     As  74.9216   tau(    2) = (   -0.25000    0.25000    0.25000  )

     Computing dynamical matrix for
                    q = (  -0.5000000  -1.0000000   0.0000000 )

      4 Sym.Ops. (no q -> -q+G )

     G cutoff =  444.6961  (   9841 G-vectors)     FFT grid: ( 30, 30, 30)
     number of k points=   432

     PseudoPot. # 1 for Ga read from file:
     ./\Ga.pz-bhs.UPF
     MD5 check sum: 98e586e88b8512aeea599638ab896ed5
     Pseudo is Norm-conserving, Zval =  3.0
     Generated by new atomic code, or converted to UPF format
     Using radial grid of  523 points,  2 beta functions with:
                l(1) =   0
                l(2) =   1

     PseudoPot. # 2 for As read from file:
     ./\As.pz-bhs.UPF
     MD5 check sum: 13f7c76a6e1707474fd055f425e5c3c1
     Pseudo is Norm-conserving, Zval =  5.0
     Generated by new atomic code, or converted to UPF format
     Using radial grid of  525 points,  2 beta functions with:
                l(1) =   0
                l(2) =   1

     Mode symmetry, S_4 (-4)    point group:

     Atomic displacements:
     There are   6 irreducible representations

[...]

     Representation     4      1 modes -E    W_4  To be done

     Representation     5      1 modes -E*   W_2  To be done

     Representation     6      1 modes -E*   W_2  To be done

     Alpha used in Ewald sum =   1.7000

[...]

     Representation #  6 mode #   6

     Self-consistent Calculation

[...]

      thresh= 1.197E-08 alpha_mix =  0.700 |ddv_scf|^2 =  4.587E-17

     End of self-consistent calculation

     Convergence has been achieved

     Number of q in the star =    6
     List of q in the star:
          1  -0.500000000  -1.000000000   0.000000000
          2   0.000000000   1.000000000  -0.500000000
          3   0.000000000   1.000000000   0.500000000
          4   0.500000000   1.000000000   0.000000000
          5   0.000000000  -0.500000000  -1.000000000
          6   0.000000000   0.500000000  -1.000000000

     Diagonalizing the dynamical matrix

     q = (   -0.500000000  -1.000000000   0.000000000 )

     freq (    1) =       3.096007 [THz] =     103.271676 [cm-1]
     freq (    2) =       3.463326 [THz] =     115.524119 [cm-1]
     freq (    3) =       5.957610 [THz] =     198.724477 [cm-1]
     freq (    4) =       6.233057 [THz] =     207.912410 [cm-1]
     freq (    5) =       7.655573 [THz] =     255.362438 [cm-1]
     freq (    6) =       8.023510 [THz] =     267.635488 [cm-1]

     Mode symmetry, S_4 (-4)    point group:

     freq (  1 -  1) =        103.3  [cm-1]   --> B    W_3
     freq (  2 -  2) =        115.5  [cm-1]   --> E*   W_2
     freq (  3 -  3) =        198.7  [cm-1]   --> A    W_1
     freq (  4 -  4) =        207.9  [cm-1]   --> E    W_4
     freq (  5 -  5) =        255.4  [cm-1]   --> E*   W_2
     freq (  6 -  6) =        267.6  [cm-1]   --> B    W_3

     General routines

     Parallel routines

     INITIALIZATION:

     DYNAMICAL MATRIX:

      General routines

   This run was terminated on:  15:28:40  31Jul2021

   JOB DONE.