     Program PHONON v.6.4.1 starts on 31Jul2021 at 14:48:45

     Reading data from directory:
     ./\gaas.save\

     IMPORTANT: XC functional enforced from input :
     Exchange-correlation      = PZ ( 1  1  0  0 0 0)
     Any further DFT definition will be discarded
     Please, verify this is what you really want

     Calculation of q =    0.0000000   0.0000000   0.0000000

     phonons of GaAs

     bravais-lattice index     =            2
     lattice parameter (alat)  =      10.4749  a.u.
     unit-cell volume          =     287.3390 (a.u.)^3
     number of atoms/cell      =            2
     number of atomic types    =            2
     kinetic-energy cut-off    =      40.0000  Ry
     charge density cut-off    =     160.0000  Ry
     convergence threshold     =      1.0E-14
     beta                      =       0.7000
     number of iterations used =            4
     Exchange-correlation      = PZ ( 1  1  0  0 0 0)

     celldm(1)=   10.47494  celldm(2)=    0.00000  celldm(3)=    0.00000
     celldm(4)=    0.00000  celldm(5)=    0.00000  celldm(6)=    0.00000

     crystal axes: (cart. coord. in units of alat)
               a(1) = ( -0.5000  0.0000  0.5000 )
               a(2) = (  0.0000  0.5000  0.5000 )
               a(3) = ( -0.5000  0.5000  0.0000 )

     reciprocal axes: (cart. coord. in units 2 pi/alat)
               b(1) = ( -1.0000 -1.0000  1.0000 )
               b(2) = (  1.0000  1.0000  1.0000 )
               b(3) = ( -1.0000  1.0000 -1.0000 )

     Atoms inside the unit cell:

     Cartesian axes

     site n.  atom      mass           positions (alat units)
        1     Ga  69.7200   tau(    1) = (    0.00000    0.00000    0.00000  )
        2     As  74.9200   tau(    2) = (   -0.25000    0.25000    0.25000  )

     Computing dynamical matrix for
                    q = (   0.0000000   0.0000000   0.0000000 )

     25 Sym.Ops. (with q -> -q+G )

     G cutoff =  444.6961  (   9841 G-vectors)     FFT grid: ( 30, 30, 30)
     number of k points=    28
                       cart. coord. in units 2pi/alat
        k(    1) = (  -0.0833333   0.0833333   0.0833333), wk =   0.0185185
        k(    2) = (  -0.2500000   0.2500000  -0.0833333), wk =   0.0555556
        k(    3) = (  -0.4166667   0.4166667  -0.2500000), wk =   0.0555556
        k(    4) = (   0.4166667  -0.4166667   0.5833333), wk =   0.0555556
        k(    5) = (   0.2500000  -0.2500000   0.4166667), wk =   0.0555556
        k(    6) = (   0.0833333  -0.0833333   0.2500000), wk =   0.0555556
        k(    7) = (  -0.0833333   0.4166667   0.0833333), wk =   0.0555556
        k(    8) = (  -0.2500000   0.5833333  -0.0833333), wk =   0.1111111
        k(    9) = (   0.5833333  -0.2500000   0.7500000), wk =   0.1111111
        k(   10) = (   0.4166667  -0.0833333   0.5833333), wk =   0.1111111
        k(   11) = (   0.2500000   0.0833333   0.4166667), wk =   0.1111111
        k(   12) = (  -0.0833333   0.7500000   0.0833333), wk =   0.0555556
        k(   13) = (   0.7500000  -0.0833333   0.9166667), wk =   0.1111111
        k(   14) = (   0.5833333   0.0833333   0.7500000), wk =   0.1111111
        k(   15) = (   0.4166667   0.2500000   0.5833333), wk =   0.1111111
        k(   16) = (  -0.0833333  -0.9166667   0.0833333), wk =   0.0555556
        k(   17) = (  -0.2500000  -0.7500000  -0.0833333), wk =   0.1111111
        k(   18) = (  -0.0833333  -0.5833333   0.0833333), wk =   0.0555556
        k(   19) = (  -0.2500000   0.2500000   0.2500000), wk =   0.0185185
        k(   20) = (  -0.4166667   0.4166667   0.0833333), wk =   0.0555556
        k(   21) = (   0.4166667  -0.4166667   0.9166667), wk =   0.0555556
        k(   22) = (   0.2500000  -0.2500000   0.7500000), wk =   0.0555556
        k(   23) = (  -0.2500000   0.5833333   0.2500000), wk =   0.0555556
        k(   24) = (   0.5833333  -0.2500000   1.0833333), wk =   0.1111111
        k(   25) = (   0.4166667  -0.0833333   0.9166667), wk =   0.1111111
        k(   26) = (  -0.2500000  -1.0833333   0.2500000), wk =   0.0555556
        k(   27) = (  -0.4166667   0.4166667   0.4166667), wk =   0.0185185
        k(   28) = (   0.4166667  -0.4166667   1.2500000), wk =   0.0555556

     PseudoPot. # 1 for Ga read from file:
     ./\Ga.pz-bhs.UPF
     MD5 check sum: 98e586e88b8512aeea599638ab896ed5
     Pseudo is Norm-conserving, Zval =  3.0
     Generated by new atomic code, or converted to UPF format
     Using radial grid of  523 points,  2 beta functions with:
                l(1) =   0
                l(2) =   1

     PseudoPot. # 2 for As read from file:
     ./\As.pz-bhs.UPF
     MD5 check sum: 13f7c76a6e1707474fd055f425e5c3c1
     Pseudo is Norm-conserving, Zval =  5.0
     Generated by new atomic code, or converted to UPF format
     Using radial grid of  525 points,  2 beta functions with:
                l(1) =   0
                l(2) =   1

     Mode symmetry, T_d (-43m)  point group:

     Electric field:
     Dielectric constant
     Born effective charges as d Force / d E

     Atomic displacements:
     There are   2 irreducible representations

     Representation     1      3 modes -T_2  G_15 P_4  To be done

     Representation     2      3 modes -T_2  G_15 P_4  To be done

     Alpha used in Ewald sum =   1.7000

     Electric Fields Calculation

      thresh= 1.000E-02 alpha_mix =  0.700 |ddv_scf|^2 =  2.588E-07

[...]

     End of electric fields calculation

          Dielectric constant in cartesian axis

          (      11.568106239       0.000000000       0.000000000 )
          (       0.000000000      11.568106239       0.000000000 )
          (       0.000000000      -0.000000000      11.568106239 )

          Effective charges (d Force / dE) in cartesian axis

           atom      1   Ga
      Ex  (        2.02969        0.00000        0.00000 )
      Ey  (        0.00000        2.02969       -0.00000 )
      Ez  (        0.00000       -0.00000        2.02969 )
           atom      2   As
      Ex  (       -2.04551        0.00000        0.00000 )
      Ey  (        0.00000       -2.04551       -0.00000 )
      Ez  (        0.00000       -0.00000       -2.04551 )

     Representation #  1 modes #   1  2  3

     Self-consistent Calculation

[...]

     End of self-consistent calculation

     Convergence has been achieved

     Representation #  2 modes #   4  5  6

     Self-consistent Calculation

[...]

      thresh= 1.838E-08 alpha_mix =  0.700 |ddv_scf|^2 =  9.076E-17

     End of self-consistent calculation

     Convergence has been achieved

     Number of q in the star =    1
     List of q in the star:
          1   0.000000000   0.000000000   0.000000000

          Dielectric constant in cartesian axis

          (      11.568106239       0.000000000       0.000000000 )
          (       0.000000000      11.568106239       0.000000000 )
          (       0.000000000      -0.000000000      11.568106239 )

          Effective charges (d Force / dE) in cartesian axis

           atom      1   Ga
      Ex  (        2.02969        0.00000        0.00000 )
      Ey  (        0.00000        2.02969       -0.00000 )
      Ez  (        0.00000       -0.00000        2.02969 )
           atom      2   As
      Ex  (       -2.04551        0.00000        0.00000 )
      Ey  (        0.00000       -2.04551       -0.00000 )
      Ez  (        0.00000       -0.00000       -2.04551 )

     Diagonalizing the dynamical matrix

     q = (    0.000000000   0.000000000   0.000000000 )

     freq (    1) =      -0.226209 [THz] =      -7.545522 [cm-1]
     freq (    2) =      -0.226209 [THz] =      -7.545522 [cm-1]
     freq (    3) =      -0.226209 [THz] =      -7.545522 [cm-1]
     freq (    4) =       8.261829 [THz] =     275.584936 [cm-1]
     freq (    5) =       8.261829 [THz] =     275.584936 [cm-1]
     freq (    6) =       8.261829 [THz] =     275.584936 [cm-1]

     Mode symmetry, T_d (-43m)  point group:

     freq (  1 -  3) =         -7.5  [cm-1]   --> T_2  G_15 P_4   I+R
     freq (  4 -  6) =        275.6  [cm-1]   --> T_2  G_15 P_4   I+R

     INITIALIZATION:

     DIELECTRIC CONSTANT AND EFFECTIVE CHARGES:

     DYNAMICAL MATRIX:

      General routines

   This run was terminated on:  14:49:19  31Jul2021

   JOB DONE.